Ga150 N150                              
   1.00000000000000     
     8.0482965387795637  -13.9400700962268846   -0.0000003151961981
     8.0482906673966994   13.9400667053525016   -0.0000002254193136
    -0.0000005268402214    0.0000000487389220   15.7345155301750257
   Ga   N 
   150   150
Direct
  0.0666666656009909  0.1333332873175053  0.3330453649219010
  0.0666667032965407  0.1333333669349344  0.6663786829022555
  0.0666666593185923  0.1333332826169240  0.9997120380113387
  0.0666666717698305  0.3333332499658468  0.3330454292547600
  0.0666666972742860  0.3333333179667193  0.6663786863784438
  0.0666667061233639  0.3333332605212789  0.9997120728054796
  0.0666666971282339  0.5333332728151063  0.3330453547480019
  0.0666667297081531  0.5333332863865792  0.6663787063449647
  0.0666666807651097  0.5333332308024836  0.9997120714420475
  0.0666666372114406  0.7333332826551384  0.3330454129394553
  0.0666666374134692  0.7333332716107108  0.6663786236384794
  0.0666666793868842  0.7333332927065754  0.9997119814441220
  0.0666666497969999  0.9333332712722751  0.3330453595481231
  0.0666666675449363  0.9333332677502284  0.6663787023870000
  0.0666666964388511  0.9333332866650252  0.9997120474274510
  0.2666667627064143  0.1333332806774692  0.3330453311222499
  0.2666667511270546  0.1333332858644098  0.6663787076855527
  0.2666666570739480  0.1333332821137105  0.9997120722382604
  0.2666666615245674  0.3333332656378261  0.3330453616095284
  0.2666666403277134  0.3333332722912488  0.6663786996950094
  0.2666666695569191  0.3333333146803312  0.9997120463752296
  0.2666667208897024  0.5333333372833948  0.3330453487620986
  0.2666667394547559  0.5333332669972251  0.6663786770396811
  0.2666666590852671  0.5333332584914601  0.9997120097948553
  0.2666667084628500  0.7333333137130893  0.3330453560897340
  0.2666666320893469  0.7333332352589252  0.6663787436224098
  0.2666667089419761  0.7333332748624670  0.9997120998338218
  0.2666666596943088  0.9333332487507491  0.3330453503665041
  0.2666666663776098  0.9333332777247065  0.6663787097463683
  0.2666666712027848  0.9333332447936513  0.9997120312013479
  0.4666667228119081  0.1333332654945210  0.3330453477999100
  0.4666667276563743  0.1333333211254768  0.6663786990306164
  0.4666666617483202  0.1333332574586024  0.9997121398282758
  0.4666667362384516  0.3333333110428143  0.3330453429404585
  0.4666666773048931  0.3333333036859827  0.6663787740595382
  0.4666667190228608  0.3333333224770101  0.9997120069697303
  0.4666667072051496  0.5333332670555038  0.3330453449864379
  0.4666666909692054  0.5333332958856261  0.6663786854450251
  0.4666667003106255  0.5333332745405812  0.9997119708042845
  0.4666667177711616  0.7333333165077249  0.3330453046181461
  0.4666666486978031  0.7333332543346174  0.6663786826727360
  0.4666666671820749  0.7333332902654561  0.9997120434084152
  0.4666666996864066  0.9333332778110233  0.3330453499567412
  0.4666666951814875  0.9333332748065644  0.6663786796838735
  0.4666667249972534  0.9333332877722356  0.9997120110004047
  0.6666666465155160  0.1333332581303424  0.3330453300139595
  0.6666666627247224  0.1333332484719918  0.6663787142827431
  0.6666667331876397  0.1333333039766416  0.9997120410426987
  0.6666667455400201  0.3333333120451982  0.3330453946952616
  0.6666667263189225  0.3333333034741131  0.6663787065116793
  0.6666667238283210  0.3333332773903948  0.9997120809253275
  0.6666666545418209  0.5333332785505789  0.3330453580099189
  0.6666666786604267  0.5333333154079014  0.6663786513897847
  0.6666666247639768  0.5333332228777437  0.9997119955881146
  0.6666666696212715  0.7333332814577602  0.3330453722673852
  0.6666667129076060  0.7333332804461037  0.6663786670890346
  0.6666666738792202  0.7333332877273904  0.9997120568425970
  0.6666666894023550  0.9333332978742135  0.3330453006495731
  0.6666666832924548  0.9333332645849453  0.6663786955168831
  0.6666666960919798  0.9333333039320451  0.9997120297023159
  0.8666666428530831  0.1333332613061913  0.3330453630184422
  0.8666666640726817  0.1333332552730511  0.6663787152814464
  0.8666666593203445  0.1333332869866624  0.9997120456176987
  0.8666666672522396  0.3333332803273876  0.3330453401059259
  0.8666666872338809  0.3333332853765967  0.6663787543874733
  0.8666666633166926  0.3333332564212483  0.9997120573314291
  0.8666667263364474  0.5333332950818885  0.3330453576246057
  0.8666666661432956  0.5333332762662906  0.6663786763298702
  0.8666667036852331  0.5333332574738279  0.9997120213197803
  0.8666667108453723  0.7333333103157713  0.3330454026639060
  0.8666667149977911  0.7333332584506991  0.6663786937960126
  0.8666667246828155  0.7333332485018360  0.9997120869829672
  0.8666667108905628  0.9333332917298236  0.3330454175812463
  0.8666666739309719  0.9333332587092329  0.6663786710562292
  0.8666666718005160  0.9333332797787506  0.9997120153813555
  0.1333333869553570  0.0666667660816742  0.1663787043386904
  0.1333332888406531  0.0666666678213303  0.4997119812627133
  0.1333333206703244  0.0666667304073911  0.8330453061010132
  0.1333333328565232  0.2666667280634911  0.1663786718355240
  0.1333333453487313  0.2666667307106749  0.4997120201211374
  0.1333333562923613  0.2666667300511847  0.8330453863007463
  0.1333333356022948  0.4666667586693762  0.1663786516497723
  0.1333332902182320  0.4666667294675548  0.4997120611417003
  0.1333333728398571  0.4666667360780465  0.8330453835017479
  0.1333333629760531  0.6666667439588636  0.1663787027852308
  0.1333332380188210  0.6666666673317749  0.4997120460894493
  0.1333333132609837  0.6666667248350251  0.8330453637639934
  0.1333333343697234  0.8666667466542179  0.1663787274438064
  0.1333333595786641  0.8666667631285421  0.4997120583333796
  0.1333333013951048  0.8666667012959550  0.8330453683001267
  0.3333333173318351  0.0666667582015066  0.1663786749722220
  0.3333332275594145  0.0666666794122435  0.4997120545034832
  0.3333333462113259  0.0666667195887456  0.8330453099000152
  0.3333332658400181  0.2666667670547866  0.1663786974041699
  0.3333332974620618  0.2666667913623115  0.4997119744599559
  0.3333332979394257  0.2666667272327743  0.8330453021124526
  0.3333332922056016  0.4666667021600688  0.1663787379668804
  0.3333333681952411  0.4666667606293942  0.4997120184973696
  0.3333333022179801  0.4666666945329752  0.8330453611729425
  0.3333333145071506  0.6666666938365182  0.1663786699320156
  0.3333333111281220  0.6666666862712844  0.4997120548151415
  0.3333332849535182  0.6666666943662989  0.8330453922133145
  0.3333333495547564  0.8666667136314459  0.1663787321055139
  0.3333332827486046  0.8666667243135677  0.4997120304213780
  0.3333333222099384  0.8666667401016284  0.8330453191604335
  0.5333333295843872  0.0666666874407582  0.1663787014979192
  0.5333333435182581  0.0666667753397192  0.4997120008152720
  0.5333333534636679  0.0666667139908768  0.8330453547164467
  0.5333333263790507  0.2666666923712100  0.1663787157022867
  0.5333332883062241  0.2666667019218849  0.4997120398324881
  0.5333333321979907  0.2666667228416912  0.8330453291955422
  0.5333332851386388  0.4666667571318257  0.1663787006228787
  0.5333332945226488  0.4666667002498599  0.4997120045097816
  0.5333332811129026  0.4666667242501461  0.8330453660935930
  0.5333332975109286  0.6666667221652531  0.1663786918774619
  0.5333333329041352  0.6666666855218892  0.4997120023098773
  0.5333334006984956  0.6666667478344408  0.8330453828344346
  0.5333333454039533  0.8666667094743588  0.1663786573629409
  0.5333333238182973  0.8666667323411730  0.4997120380652333
  0.5333333280012056  0.8666667100473049  0.8330453845849277
  0.7333333260124135  0.0666667600800608  0.1663786979173310
  0.7333333262431054  0.0666667254638540  0.4997120226441467
  0.7333333167008149  0.0666667538832328  0.8330453902353554
  0.7333332797342180  0.2666667133634704  0.1663786850004527
  0.7333333163556688  0.2666666977900363  0.4997119796476426
  0.7333333743643351  0.2666667885137528  0.8330453257985511
  0.7333333234869528  0.4666666688952006  0.1663786492797215
  0.7333333084902733  0.4666667547673100  0.4997119981475535
  0.7333333058562275  0.4666666935615993  0.8330453782175411
  0.7333332515996034  0.6666667097705670  0.1663786711676707
  0.7333333454221815  0.6666667250729006  0.4997120498197702
  0.7333333213935020  0.6666667012934511  0.8330453238083351
  0.7333332763423641  0.8666667308729572  0.1663786660955253
  0.7333333082876550  0.8666666826322782  0.4997120062652698
  0.7333332457889767  0.8666666765448099  0.8330453696525453
  0.9333333430066091  0.0666667466600899  0.1663786541474224
  0.9333333141898734  0.0666666973366361  0.4997120323250357
  0.9333333287920667  0.0666667557065921  0.8330453227456047
  0.9333333676670179  0.2666667513836742  0.1663786633609945
  0.9333333482855508  0.2666667263765561  0.4997120148789165
  0.9333332718451928  0.2666666964993638  0.8330453120013246
  0.9333332975269997  0.4666667324250469  0.1663786427348910
  0.9333332784995321  0.4666667069416235  0.4997120244312470
  0.9333332722245586  0.4666667238185909  0.8330452909647832
  0.9333332285714064  0.6666666942883666  0.1663787070626412
  0.9333333102602666  0.6666667580452170  0.4997120262835324
  0.9333333081315871  0.6666666960043770  0.8330453658268340
  0.9333332610446661  0.8666666916804289  0.1663786925440789
  0.9333333038960419  0.8666667257224745  0.4997120246120943
  0.9333332699792365  0.8666666961391414  0.8330453783154255
  0.0666666833424046  0.1333333600667785  0.1252879390688335
  0.0666666199938390  0.1333332981689139  0.4586213667218431
  0.0666666594991270  0.1333333423688217  0.7919546373912141
  0.0666666801455662  0.3333333135079286  0.1252879567679912
  0.0666667190429848  0.3333333458916456  0.4586212966183325
  0.0666666398349207  0.3333332547617189  0.7919546247622122
  0.0666666299185792  0.5333332919710188  0.1252880069145590
  0.0666666181652786  0.5333332432129936  0.4586212724087915
  0.0666667206544176  0.5333333551808295  0.7919546660957408
  0.0666667197228108  0.7333333206684713  0.1252880203010918
  0.0666666576489021  0.7333332638848731  0.4586213251341533
  0.0666666557629227  0.7333333159499276  0.7919546519238168
  0.0666666958745736  0.9333333370457311  0.1252879989098901
  0.0666666980561317  0.9333332667685710  0.4586213191490032
  0.0666666794994981  0.9333333060350881  0.7919546437427272
  0.2666666772910418  0.1333333401808403  0.1252879428467750
  0.2666666596917935  0.1333333113855701  0.4586212062228157
  0.2666666173999133  0.1333332790423256  0.7919546174460947
  0.2666667060057648  0.3333333492395170  0.1252879707057915
  0.2666666750152018  0.3333332657048658  0.4586213220995319
  0.2666666691153097  0.3333332700941654  0.7919546312902597
  0.2666666529911055  0.5333333235669144  0.1252879812694516
  0.2666666754031013  0.5333332982900032  0.4586213535840784
  0.2666667034263597  0.5333332942686795  0.7919546635645602
  0.2666666949396372  0.7333333462033025  0.1252880511718928
  0.2666666455778213  0.7333332907360983  0.4586213101308871
  0.2666667283279622  0.7333333290923250  0.7919546606378276
  0.2666666950039627  0.9333332876153406  0.1252879966176366
  0.2666666681596652  0.9333333376304225  0.4586213513300663
  0.2666666626376042  0.9333332953354017  0.7919546047223420
  0.4666666714334440  0.1333332860821486  0.1252879961551017
  0.4666666815385767  0.1333332956300310  0.4586213028551285
  0.4666666174625362  0.1333332931876399  0.7919546466019867
  0.4666667072419841  0.3333332546778180  0.1252879814704286
  0.4666667039123524  0.3333333252667217  0.4586213154936374
  0.4666666725030666  0.3333332754659750  0.7919545747134364
  0.4666666754648645  0.5333333061152814  0.1252880513776731
  0.4666667082379377  0.5333333070240087  0.4586212051130829
  0.4666667175269694  0.5333332936035902  0.7919546243049567
  0.4666666940057667  0.7333333717453954  0.1252879859546354
  0.4666667209418591  0.7333333307493746  0.4586212928942288
  0.4666666661332854  0.7333332416162506  0.7919546428600270
  0.4666667221242307  0.9333332739749878  0.1252879456505624
  0.4666666587111976  0.9333332745434646  0.4586213168684310
  0.4666666677279565  0.9333333154580856  0.7919546120271335
  0.6666666934923384  0.1333332943626999  0.1252880325677452
  0.6666666582167267  0.1333332869442998  0.4586213061758286
  0.6666666931931218  0.1333333328365072  0.7919546703575264
  0.6666667226345524  0.3333333210182232  0.1252879159332352
  0.6666666653844047  0.3333333547059567  0.4586213005697459
  0.6666666869944891  0.3333332652919978  0.7919545850054703
  0.6666666151021445  0.5333332677650944  0.1252879636156976
  0.6666667306144447  0.5333333319876559  0.4586212557793061
  0.6666666905340008  0.5333332911273416  0.7919546209895785
  0.6666667289164607  0.7333333428062829  0.1252879244847449
  0.6666666620227915  0.7333332591239810  0.4586213374884096
  0.6666666776901309  0.7333333056022013  0.7919546030661806
  0.6666666856154251  0.9333332758364250  0.1252880076399308
  0.6666667525673802  0.9333333430510748  0.4586213503105441
  0.6666666662916398  0.9333333107227872  0.7919546360612770
  0.8666666727896910  0.1333332974628902  0.1252879821674995
  0.8666666976217101  0.1333333061849657  0.4586213028272894
  0.8666666467585387  0.1333332403091063  0.7919546300067850
  0.8666666895920585  0.3333332375647018  0.1252880286183498
  0.8666666030713444  0.3333332784485634  0.4586213392018053
  0.8666667519439173  0.3333333724478251  0.7919546702004041
  0.8666666926319309  0.5333333051297231  0.1252879638311057
  0.8666667050133654  0.5333332860142903  0.4586212690350919
  0.8666667085149982  0.5333333009291295  0.7919546478180521
  0.8666667018257854  0.7333332868663263  0.1252879594674710
  0.8666666758611115  0.7333333028271056  0.4586212581181428
  0.8666666277329753  0.7333332712319915  0.7919547170721088
  0.8666667861284836  0.9333333212804860  0.1252880322540619
  0.8666666647857184  0.9333332600334785  0.4586213340257359
  0.8666667229329192  0.9333333045136598  0.7919546230042940
  0.1333333439513424  0.0666667238830456  0.2919546737028185
  0.1333333069607008  0.0666666742276902  0.6252879700009828
  0.1333333319995518  0.0666666810920944  0.9586213104151327
  0.1333332845702486  0.2666666818713779  0.2919546229309944
  0.1333333136390493  0.2666667464030326  0.6252879402455420
  0.1333333062145101  0.2666667118575674  0.9586213394218817
  0.1333333543200226  0.4666667369002369  0.2919546150049257
  0.1333333117469380  0.4666667355787553  0.6252880158521847
  0.1333333341714820  0.4666666971176952  0.9586212849186921
  0.1333333159211634  0.6666666828776968  0.2919546669440862
  0.1333333438202473  0.6666666931486702  0.6252879910354281
  0.1333333392752394  0.6666667600611049  0.9586213395984089
  0.1333333095715901  0.8666666827655618  0.2919546458142435
  0.1333333285396350  0.8666666621975594  0.6252879556872486
  0.1333332610415283  0.8666666504367697  0.9586212722858676
  0.3333333115894703  0.0666667103128589  0.2919545900992802
  0.3333333370789049  0.0666667362052920  0.6252879418765502
  0.3333333290597764  0.0666666594783152  0.9586213023093464
  0.3333332673976415  0.2666666764220338  0.2919546426539554
  0.3333333666843146  0.2666667330879093  0.6252879920124883
  0.3333332871029455  0.2666666956412271  0.9586212793066693
  0.3333333979052640  0.4666667389866177  0.2919546735298653
  0.3333332686840365  0.4666667084851994  0.6252879601744752
  0.3333333437182802  0.4666667112219827  0.9586213391692056
  0.3333333093040807  0.6666666695109953  0.2919546053768798
  0.3333333733091095  0.6666667153991241  0.6252879884421603
  0.3333333152152136  0.6666666906116561  0.9586212809246959
  0.3333333927542910  0.8666667428946226  0.2919546635204924
  0.3333333279283863  0.8666667555622496  0.6252879707043277
  0.3333333203081636  0.8666667090736695  0.9586213076404206
  0.5333333596063881  0.0666667413341671  0.2919546578592005
  0.5333333337583142  0.0666667195944157  0.6252879699539804
  0.5333332411661402  0.0666666397366242  0.9586212765907689
  0.5333332940116904  0.2666666864430169  0.2919546309656127
  0.5333333340841975  0.2666667454969200  0.6252879553085720
  0.5333333778300471  0.2666667604159656  0.9586212862432859
  0.5333332781436937  0.4666666523494953  0.2919546468221768
  0.5333332872861405  0.4666667367235746  0.6252879537691527
  0.5333333162884628  0.4666667371699731  0.9586212408752104
  0.5333333519714998  0.6666667287202799  0.2919545916212769
  0.5333332730644074  0.6666666668333363  0.6252879311086090
  0.5333332973398797  0.6666666997644128  0.9586212823913556
  0.5333332739502623  0.8666666764588769  0.2919547313158191
  0.5333333174141615  0.8666666462642141  0.6252879477148383
  0.5333333633872925  0.8666667357661950  0.9586212647039076
  0.7333333053866085  0.0666666861965837  0.2919546154247783
  0.7333332602237519  0.0666666675759942  0.6252879813522227
  0.7333333119135688  0.0666666793785851  0.9586213508449930
  0.7333333568721585  0.2666667042775188  0.2919545806009012
  0.7333333084246689  0.2666667334412551  0.6252879916058234
  0.7333332914915829  0.2666666363337455  0.9586213283642451
  0.7333332638005245  0.4666666726690281  0.2919546224673795
  0.7333333232302550  0.4666666959606758  0.6252879690359592
  0.7333333847792503  0.4666667339528559  0.9586212934550247
  0.7333332839942344  0.6666666732840341  0.2919545916164097
  0.7333333532819708  0.6666666806262640  0.6252879796484905
  0.7333332759918747  0.6666666837092876  0.9586213544526743
  0.7333333124460424  0.8666667560277830  0.2919546646641393
  0.7333333442322640  0.8666666707402157  0.6252879813881975
  0.7333333535513944  0.8666667027543653  0.9586212760681221
  0.9333333728838298  0.0666667838358705  0.2919546397136941
  0.9333333340108396  0.0666667004893142  0.6252880274082244
  0.9333333100483827  0.0666666196995322  0.9586212870496951
  0.9333333714909813  0.2666667000518288  0.2919547194583672
  0.9333332261498271  0.2666666227885841  0.6252879621891694
  0.9333332963722611  0.2666666137455778  0.9586212850352496
  0.9333332675749446  0.4666666912854964  0.2919546803396145
  0.9333332887633148  0.4666666710459424  0.6252879802104871
  0.9333332790879325  0.4666666182464425  0.9586213314240197
  0.9333332537668042  0.6666666318334009  0.2919546669516180
  0.9333332836163990  0.6666666452766989  0.6252879372502420
  0.9333333159242869  0.6666667029163094  0.9586212872314448
  0.9333333054484498  0.8666667223371221  0.2919546537625521
  0.9333333199713181  0.8666666670823346  0.6252879449805135
  0.9333333380323054  0.8666666651716497  0.9586213414320781
 
  0.00000000E+00  0.00000000E+00  0.00000000E+00
  0.00000000E+00  0.00000000E+00  0.00000000E+00
  0.00000000E+00  0.00000000E+00  0.00000000E+00
  0.00000000E+00  0.00000000E+00  0.00000000E+00
  0.00000000E+00  0.00000000E+00  0.00000000E+00
  0.00000000E+00  0.00000000E+00  0.00000000E+00
  0.00000000E+00  0.00000000E+00  0.00000000E+00
  0.00000000E+00  0.00000000E+00  0.00000000E+00
  0.00000000E+00  0.00000000E+00  0.00000000E+00
  0.00000000E+00  0.00000000E+00  0.00000000E+00
  0.00000000E+00  0.00000000E+00  0.00000000E+00
  0.00000000E+00  0.00000000E+00  0.00000000E+00
  0.00000000E+00  0.00000000E+00  0.00000000E+00
  0.00000000E+00  0.00000000E+00  0.00000000E+00
  0.00000000E+00  0.00000000E+00  0.00000000E+00
  0.00000000E+00  0.00000000E+00  0.00000000E+00
  0.00000000E+00  0.00000000E+00  0.00000000E+00
  0.00000000E+00  0.00000000E+00  0.00000000E+00
  0.00000000E+00  0.00000000E+00  0.00000000E+00
  0.00000000E+00  0.00000000E+00  0.00000000E+00
  0.00000000E+00  0.00000000E+00  0.00000000E+00
  0.00000000E+00  0.00000000E+00  0.00000000E+00
  0.00000000E+00  0.00000000E+00  0.00000000E+00
  0.00000000E+00  0.00000000E+00  0.00000000E+00
  0.00000000E+00  0.00000000E+00  0.00000000E+00
  0.00000000E+00  0.00000000E+00  0.00000000E+00
  0.00000000E+00  0.00000000E+00  0.00000000E+00
  0.00000000E+00  0.00000000E+00  0.00000000E+00
  0.00000000E+00  0.00000000E+00  0.00000000E+00
  0.00000000E+00  0.00000000E+00  0.00000000E+00
  0.00000000E+00  0.00000000E+00  0.00000000E+00
  0.00000000E+00  0.00000000E+00  0.00000000E+00
  0.00000000E+00  0.00000000E+00  0.00000000E+00
  0.26628479E-01  0.76869923E-01  0.17353014E-01
  0.00000000E+00  0.00000000E+00  0.00000000E+00
  0.00000000E+00  0.00000000E+00  0.00000000E+00
  0.00000000E+00  0.00000000E+00  0.00000000E+00
  0.00000000E+00  0.00000000E+00  0.00000000E+00
  0.00000000E+00  0.00000000E+00  0.00000000E+00
  0.00000000E+00  0.00000000E+00  0.00000000E+00
  0.00000000E+00  0.00000000E+00  0.00000000E+00
  0.00000000E+00  0.00000000E+00  0.00000000E+00
  0.00000000E+00  0.00000000E+00  0.00000000E+00
  0.00000000E+00  0.00000000E+00  0.00000000E+00
  0.00000000E+00  0.00000000E+00  0.00000000E+00
  0.00000000E+00  0.00000000E+00  0.00000000E+00
  0.00000000E+00  0.00000000E+00  0.00000000E+00
  0.00000000E+00  0.00000000E+00  0.00000000E+00
  0.00000000E+00  0.00000000E+00  0.00000000E+00
  0.00000000E+00  0.00000000E+00  0.00000000E+00
  0.00000000E+00  0.00000000E+00  0.00000000E+00
  0.00000000E+00  0.00000000E+00  0.00000000E+00
  0.00000000E+00  0.00000000E+00  0.00000000E+00
  0.00000000E+00  0.00000000E+00  0.00000000E+00
  0.00000000E+00  0.00000000E+00  0.00000000E+00
  0.00000000E+00  0.00000000E+00  0.00000000E+00
  0.00000000E+00  0.00000000E+00  0.00000000E+00
  0.00000000E+00  0.00000000E+00  0.00000000E+00
  0.00000000E+00  0.00000000E+00  0.00000000E+00
  0.00000000E+00  0.00000000E+00  0.00000000E+00
  0.00000000E+00  0.00000000E+00  0.00000000E+00
  0.00000000E+00  0.00000000E+00  0.00000000E+00
  0.00000000E+00  0.00000000E+00  0.00000000E+00
  0.00000000E+00  0.00000000E+00  0.00000000E+00
  0.00000000E+00  0.00000000E+00  0.00000000E+00
  0.00000000E+00  0.00000000E+00  0.00000000E+00
  0.00000000E+00  0.00000000E+00  0.00000000E+00
  0.00000000E+00  0.00000000E+00  0.00000000E+00
  0.00000000E+00  0.00000000E+00  0.00000000E+00
  0.00000000E+00  0.00000000E+00  0.00000000E+00
  0.00000000E+00  0.00000000E+00  0.00000000E+00
  0.00000000E+00  0.00000000E+00  0.00000000E+00
  0.00000000E+00  0.00000000E+00  0.00000000E+00
  0.00000000E+00  0.00000000E+00  0.00000000E+00
  0.00000000E+00  0.00000000E+00  0.00000000E+00
  0.00000000E+00  0.00000000E+00  0.00000000E+00
  0.00000000E+00  0.00000000E+00  0.00000000E+00
  0.00000000E+00  0.00000000E+00  0.00000000E+00
  0.00000000E+00  0.00000000E+00  0.00000000E+00
  0.00000000E+00  0.00000000E+00  0.00000000E+00
  0.00000000E+00  0.00000000E+00  0.00000000E+00
  0.00000000E+00  0.00000000E+00  0.00000000E+00
  0.00000000E+00  0.00000000E+00  0.00000000E+00
  0.00000000E+00  0.00000000E+00  0.00000000E+00
  0.00000000E+00  0.00000000E+00  0.00000000E+00
  0.00000000E+00  0.00000000E+00  0.00000000E+00
  0.00000000E+00  0.00000000E+00  0.00000000E+00
  0.00000000E+00  0.00000000E+00  0.00000000E+00
  0.00000000E+00  0.00000000E+00  0.00000000E+00
  0.00000000E+00  0.00000000E+00  0.00000000E+00
  0.00000000E+00  0.00000000E+00  0.00000000E+00
  0.00000000E+00  0.00000000E+00  0.00000000E+00
  0.00000000E+00  0.00000000E+00  0.00000000E+00
  0.00000000E+00  0.00000000E+00  0.00000000E+00
  0.00000000E+00  0.00000000E+00  0.00000000E+00
  0.00000000E+00  0.00000000E+00  0.00000000E+00
  0.00000000E+00  0.00000000E+00  0.00000000E+00
  0.00000000E+00  0.00000000E+00  0.00000000E+00
  0.00000000E+00  0.00000000E+00  0.00000000E+00
  0.00000000E+00  0.00000000E+00  0.00000000E+00
  0.00000000E+00  0.00000000E+00  0.00000000E+00
  0.00000000E+00  0.00000000E+00  0.00000000E+00
  0.00000000E+00  0.00000000E+00  0.00000000E+00
  0.00000000E+00  0.00000000E+00  0.00000000E+00
  0.00000000E+00  0.00000000E+00  0.00000000E+00
  0.00000000E+00  0.00000000E+00  0.00000000E+00
  0.00000000E+00  0.00000000E+00  0.00000000E+00
  0.00000000E+00  0.00000000E+00  0.00000000E+00
  0.00000000E+00  0.00000000E+00  0.00000000E+00
  0.00000000E+00  0.00000000E+00  0.00000000E+00
  0.00000000E+00  0.00000000E+00  0.00000000E+00
  0.00000000E+00  0.00000000E+00  0.00000000E+00
  0.00000000E+00  0.00000000E+00  0.00000000E+00
  0.00000000E+00  0.00000000E+00  0.00000000E+00
  0.00000000E+00  0.00000000E+00  0.00000000E+00
  0.00000000E+00  0.00000000E+00  0.00000000E+00
  0.00000000E+00  0.00000000E+00  0.00000000E+00
  0.00000000E+00  0.00000000E+00  0.00000000E+00
  0.00000000E+00  0.00000000E+00  0.00000000E+00
  0.00000000E+00  0.00000000E+00  0.00000000E+00
  0.00000000E+00  0.00000000E+00  0.00000000E+00
  0.00000000E+00  0.00000000E+00  0.00000000E+00
  0.00000000E+00  0.00000000E+00  0.00000000E+00
  0.00000000E+00  0.00000000E+00  0.00000000E+00
  0.00000000E+00  0.00000000E+00  0.00000000E+00
  0.00000000E+00  0.00000000E+00  0.00000000E+00
  0.00000000E+00  0.00000000E+00  0.00000000E+00
  0.00000000E+00  0.00000000E+00  0.00000000E+00
  0.00000000E+00  0.00000000E+00  0.00000000E+00
  0.00000000E+00  0.00000000E+00  0.00000000E+00
  0.00000000E+00  0.00000000E+00  0.00000000E+00
  0.00000000E+00  0.00000000E+00  0.00000000E+00
  0.00000000E+00  0.00000000E+00  0.00000000E+00
  0.00000000E+00  0.00000000E+00  0.00000000E+00
  0.00000000E+00  0.00000000E+00  0.00000000E+00
  0.00000000E+00  0.00000000E+00  0.00000000E+00
  0.00000000E+00  0.00000000E+00  0.00000000E+00
  0.00000000E+00  0.00000000E+00  0.00000000E+00
  0.00000000E+00  0.00000000E+00  0.00000000E+00
  0.00000000E+00  0.00000000E+00  0.00000000E+00
  0.00000000E+00  0.00000000E+00  0.00000000E+00
  0.00000000E+00  0.00000000E+00  0.00000000E+00
  0.00000000E+00  0.00000000E+00  0.00000000E+00
  0.00000000E+00  0.00000000E+00  0.00000000E+00
  0.00000000E+00  0.00000000E+00  0.00000000E+00
  0.00000000E+00  0.00000000E+00  0.00000000E+00
  0.00000000E+00  0.00000000E+00  0.00000000E+00
  0.00000000E+00  0.00000000E+00  0.00000000E+00
  0.00000000E+00  0.00000000E+00  0.00000000E+00
  0.00000000E+00  0.00000000E+00  0.00000000E+00
  0.00000000E+00  0.00000000E+00  0.00000000E+00
  0.00000000E+00  0.00000000E+00  0.00000000E+00
  0.00000000E+00  0.00000000E+00  0.00000000E+00
  0.00000000E+00  0.00000000E+00  0.00000000E+00
  0.00000000E+00  0.00000000E+00  0.00000000E+00
  0.00000000E+00  0.00000000E+00  0.00000000E+00
  0.00000000E+00  0.00000000E+00  0.00000000E+00
  0.00000000E+00  0.00000000E+00  0.00000000E+00
  0.00000000E+00  0.00000000E+00  0.00000000E+00
  0.00000000E+00  0.00000000E+00  0.00000000E+00
  0.00000000E+00  0.00000000E+00  0.00000000E+00
  0.00000000E+00  0.00000000E+00  0.00000000E+00
  0.00000000E+00  0.00000000E+00  0.00000000E+00
  0.00000000E+00  0.00000000E+00  0.00000000E+00
  0.00000000E+00  0.00000000E+00  0.00000000E+00
  0.00000000E+00  0.00000000E+00  0.00000000E+00
  0.00000000E+00  0.00000000E+00  0.00000000E+00
  0.00000000E+00  0.00000000E+00  0.00000000E+00
  0.00000000E+00  0.00000000E+00  0.00000000E+00
  0.00000000E+00  0.00000000E+00  0.00000000E+00
  0.00000000E+00  0.00000000E+00  0.00000000E+00
  0.00000000E+00  0.00000000E+00  0.00000000E+00
  0.00000000E+00  0.00000000E+00  0.00000000E+00
  0.00000000E+00  0.00000000E+00  0.00000000E+00
  0.00000000E+00  0.00000000E+00  0.00000000E+00
  0.00000000E+00  0.00000000E+00  0.00000000E+00
  0.00000000E+00  0.00000000E+00  0.00000000E+00
  0.00000000E+00  0.00000000E+00  0.00000000E+00
  0.00000000E+00  0.00000000E+00  0.00000000E+00
  0.00000000E+00  0.00000000E+00  0.00000000E+00
  0.00000000E+00  0.00000000E+00  0.00000000E+00
  0.00000000E+00  0.00000000E+00  0.00000000E+00
  0.00000000E+00  0.00000000E+00  0.00000000E+00
  0.00000000E+00  0.00000000E+00  0.00000000E+00
  0.00000000E+00  0.00000000E+00  0.00000000E+00
  0.00000000E+00  0.00000000E+00  0.00000000E+00
  0.00000000E+00  0.00000000E+00  0.00000000E+00
  0.00000000E+00  0.00000000E+00  0.00000000E+00
  0.00000000E+00  0.00000000E+00  0.00000000E+00
  0.00000000E+00  0.00000000E+00  0.00000000E+00
  0.00000000E+00  0.00000000E+00  0.00000000E+00
  0.00000000E+00  0.00000000E+00  0.00000000E+00
  0.00000000E+00  0.00000000E+00  0.00000000E+00
  0.00000000E+00  0.00000000E+00  0.00000000E+00
  0.00000000E+00  0.00000000E+00  0.00000000E+00
  0.00000000E+00  0.00000000E+00  0.00000000E+00
  0.00000000E+00  0.00000000E+00  0.00000000E+00
  0.00000000E+00  0.00000000E+00  0.00000000E+00
  0.00000000E+00  0.00000000E+00  0.00000000E+00
  0.00000000E+00  0.00000000E+00  0.00000000E+00
  0.00000000E+00  0.00000000E+00  0.00000000E+00
  0.00000000E+00  0.00000000E+00  0.00000000E+00
  0.00000000E+00  0.00000000E+00  0.00000000E+00
  0.00000000E+00  0.00000000E+00  0.00000000E+00
  0.00000000E+00  0.00000000E+00  0.00000000E+00
  0.00000000E+00  0.00000000E+00  0.00000000E+00
  0.00000000E+00  0.00000000E+00  0.00000000E+00
  0.00000000E+00  0.00000000E+00  0.00000000E+00
  0.00000000E+00  0.00000000E+00  0.00000000E+00
  0.00000000E+00  0.00000000E+00  0.00000000E+00
  0.00000000E+00  0.00000000E+00  0.00000000E+00
  0.00000000E+00  0.00000000E+00  0.00000000E+00
  0.00000000E+00  0.00000000E+00  0.00000000E+00
  0.00000000E+00  0.00000000E+00  0.00000000E+00
  0.00000000E+00  0.00000000E+00  0.00000000E+00
  0.00000000E+00  0.00000000E+00  0.00000000E+00
  0.00000000E+00  0.00000000E+00  0.00000000E+00
  0.00000000E+00  0.00000000E+00  0.00000000E+00
  0.00000000E+00  0.00000000E+00  0.00000000E+00
  0.00000000E+00  0.00000000E+00  0.00000000E+00
  0.00000000E+00  0.00000000E+00  0.00000000E+00
  0.00000000E+00  0.00000000E+00  0.00000000E+00
  0.00000000E+00  0.00000000E+00  0.00000000E+00
  0.00000000E+00  0.00000000E+00  0.00000000E+00
  0.00000000E+00  0.00000000E+00  0.00000000E+00
  0.00000000E+00  0.00000000E+00  0.00000000E+00
  0.00000000E+00  0.00000000E+00  0.00000000E+00
  0.00000000E+00  0.00000000E+00  0.00000000E+00
  0.00000000E+00  0.00000000E+00  0.00000000E+00
  0.00000000E+00  0.00000000E+00  0.00000000E+00
  0.00000000E+00  0.00000000E+00  0.00000000E+00
  0.00000000E+00  0.00000000E+00  0.00000000E+00