Ga150 N150                              
   1.00000000000000     
     8.0482965387795637  -13.9400700962268846   -0.0000003151961981
     8.0482906673966994   13.9400667053525016   -0.0000002254193136
    -0.0000005268402214    0.0000000487389220   15.7345155301750257
   Ga   N 
   150   150
Direct
  0.0718058814774863  0.1345441945581282  0.3245401284493793
  0.0659780345697878  0.1297490677954759  0.6552754402707041
  0.0652823815615739  0.1342214528741583  0.9944367782289192
  0.0693338080688238  0.3346745554087649  0.3383734587286387
  0.0769465515173876  0.3268804268200605  0.6644583572323373
  0.0751583711603548  0.3337353835595956  0.0053804676280369
  0.0629437795591509  0.5327055669607585  0.3407198173599089
  0.0701615786335772  0.5364383551480082  0.6703077540704596
  0.0669864981232360  0.5359318702635628  0.9991298280832198
  0.0731833256871549  0.7317733559851065  0.3246143028935568
  0.0686033870477123  0.7338182942607004  0.6555160358385207
  0.0562994836402020  0.7319120679239353  0.0018974584917923
  0.0766676496581201  0.9338791819187185  0.3447428834567585
  0.0623525966726905  0.9309790026487427  0.6698015905003469
  0.0664024503960094  0.9343821483408262  0.0039743188206037
  0.2749244897567080  0.1446804616869679  0.3343951399168062
  0.2644799236162029  0.1339374753439058  0.6737409447514108
  0.2674202952887890  0.1365977011114732  0.0011808803437791
  0.2656943859487808  0.3398036755932048  0.3275674305086281
  0.2705868255616529  0.3269443755330038  0.6625359545724923
  0.2657447765382558  0.3352992705601213  0.0003064335514018
  0.2600656017449272  0.5352198587149728  0.3349809119710677
  0.2582185692236305  0.5143523442908444  0.6716646119048898
  0.2739938790081216  0.5321431780201580  0.0010852313703457
  0.2800794779612167  0.7451799177503392  0.3305785416620620
  0.2675644500911655  0.7281692148404489  0.6702178731092951
  0.2578699347232178  0.7206217320216936  0.0003376120486668
  0.2826583077088103  0.9467717634540551  0.3348887653768748
  0.2734461319757004  0.9371528394004909  0.6642143331498537
  0.2651268093418257  0.9287056827903306  0.0077548117009423
  0.4732906461862053  0.1467089831886950  0.3209000936768229
  0.4665412043674307  0.1329981779357502  0.6637183568453174
  0.4667255241103597  0.1335708150122246  0.9903558314884872
  0.4641675689272128  0.3439055023306061  0.3304638140937030
  0.4656187236792074  0.3242508561125674  0.6663080920117904
  0.4721394273829392  0.3338566188153543  0.9916453482880823
  0.4639736746372464  0.5432371462175924  0.3326978694298693
  0.4581274905714679  0.5233806944151990  0.6660687002943980
  0.4588023268860550  0.5375278989589302  0.0022261723620791
  0.4613108604019190  0.7326118635229049  0.3363482132603473
  0.4678123659140883  0.7193950394190810  0.6649067085881961
  0.4732016896356814  0.7270879131141682  0.9980662355604437
  0.4736757573387765  0.9432710140338821  0.3340193319868168
  0.4617670005705113  0.9269784867041498  0.6614043029550378
  0.4607452701972692  0.9238390370766633  0.9966139422402038
  0.6623444139632851  0.1307568990718232  0.3360730826713620
  0.6649705613509963  0.1302842455746049  0.6642610699704510
  0.6659956543082309  0.1377658960004719  0.0046038161263537
  0.6692025358508051  0.3406128816653906  0.3288374432037046
  0.6697248124467146  0.3398982459881210  0.6704749543415988
  0.6646346959089091  0.3331062165237462  0.9990771619859142
  0.6575732059389177  0.5377878543204597  0.3316507379738487
  0.6570125148443491  0.5253279099379976  0.6708884295591468
  0.6572818923008537  0.5284398214482817  0.9936354016772611
  0.6786589132540001  0.7423907286992562  0.3320305875999563
  0.6691407671405449  0.7234553090782593  0.6573780357632781
  0.6661801898466672  0.7265742816634623  0.9925600579295154
  0.6695629870152244  0.9340461610230610  0.3275748662360860
  0.6674092304406426  0.9349617555223969  0.6774241071893793
  0.6686204274725541  0.9332322024552131  0.9992612863733480
  0.8700027621610417  0.1331466120400953  0.3380155236835192
  0.8680323447791535  0.1405033957664690  0.6631571832037506
  0.8639171745120320  0.1322807025554120  0.0018304309854335
  0.8604059086679097  0.3280094490321369  0.3260508769877644
  0.8738997767690604  0.3388189208363885  0.6660251874610755
  0.8720986057863956  0.3307158521919010  0.0079984618945109
  0.8566474077717828  0.5235287605670909  0.3331742620090783
  0.8579768741356546  0.5257617689169851  0.6625188311276263
  0.8599902405464603  0.5259892717695378  0.0039139123757083
  0.8743346076209343  0.7362740364885070  0.3376738315471355
  0.8556331082557472  0.7208097237135045  0.6640526975606612
  0.8596646501879983  0.7285227328292384  0.0042814984637072
  0.8784642212681522  0.9417678843983535  0.3324663714743503
  0.8618454486715725  0.9298335777957735  0.6682193764788293
  0.8683057080062647  0.9320414675779669  0.9937638325050807
  0.1417954238769758  0.0691805639908242  0.1711274245349179
  0.1411825540170505  0.0690497551435089  0.5009658005826361
  0.1320638404157712  0.0741077848260086  0.8392140300724058
  0.1342280892508158  0.2664107281744930  0.1678067274929841
  0.1343977440194940  0.2633967728046755  0.4919597417743155
  0.1305681117057819  0.2644636474713681  0.8280417594477887
  0.1350295398860514  0.4711606031317194  0.1679659230888210
  0.1297618170199782  0.4578470679923554  0.5017907672543076
  0.1310520406406741  0.4691851667577422  0.8350702619404077
  0.1274251899794454  0.6641769237135813  0.1638253260264780
  0.1249221567923243  0.6599625391300901  0.4988721795667794
  0.1352612162453785  0.6716597894216882  0.8353248611968896
  0.1342731354806719  0.8704063131182763  0.1666138219990143
  0.1388877254726116  0.8722379566508679  0.5030535949785102
  0.1409947735376353  0.8697418829962086  0.8334455119580690
  0.3408971223442931  0.0724171837807252  0.1623970336735415
  0.3345223878333858  0.0648471070927611  0.5023224835992093
  0.3329837508437703  0.0711839827159183  0.8333208757254155
  0.3440769043339518  0.2745477951117383  0.1653253402647283
  0.3304838597974207  0.2653714736393839  0.4986936468241364
  0.3378042998136875  0.2744071269661779  0.8362795780711730
  0.3365988410695431  0.4719499097024522  0.1684149764530762
  0.3225372975976029  0.4606883855431779  0.4947088877527189
  0.3314051208521370  0.4618687161979715  0.8340627665500566
  0.3386974256061446  0.6790612208050002  0.1648369977362192
  0.3319895198260572  0.6621804997828201  0.5028091947922082
  0.3365562534566461  0.6652854157084814  0.8322032791904930
  0.3333543751363205  0.8722676871704366  0.1630245049301237
  0.3303097133544836  0.8606037699945125  0.4988325306518132
  0.3293632761256601  0.8616177544807223  0.8343188031239710
  0.5343497529485290  0.0656840727332558  0.1623106582343128
  0.5378354221501408  0.0744166945688131  0.5005013213814425
  0.5259092465279818  0.0602804398305887  0.8275865826407959
  0.5340058285765285  0.2661945254389002  0.1596406344029665
  0.5190227036314923  0.2593645161761133  0.5006595740507785
  0.5478646771225308  0.2608751153044987  0.8331205309817830
  0.5336666194639687  0.4811768980041635  0.1673345632770344
  0.5268941487043148  0.4669125710141787  0.4965499469172448
  0.5161092691329709  0.4565816025202603  0.8333870316633889
  0.5390962718917363  0.6768301429270163  0.1724954941110507
  0.5270992210868235  0.6657076397118676  0.4922397702210937
  0.5364202089717268  0.6635739877327208  0.8250190167847824
  0.5383997758341557  0.8724390405658615  0.1692572783697139
  0.5355727312744364  0.8678936723100910  0.5063206663030142
  0.5261411176763355  0.8594691620888334  0.8340588811695688
  0.7348094015528392  0.0714911650676611  0.1708527992384291
  0.7331298917899589  0.0640106619351693  0.5038003842530585
  0.7339599162908959  0.0702650479043230  0.8372452164805350
  0.7342857945332629  0.2734079514524831  0.1701218467742864
  0.7351805574796182  0.2693295123569204  0.5048382834313883
  0.7405688940674755  0.2796360777426676  0.8329979147019211
  0.7281999594359784  0.4680259427353182  0.1661633139659330
  0.7178974121279147  0.4546802140943326  0.4968167840816758
  0.7318681313426852  0.4755111016099486  0.8363314420442829
  0.7382746018749404  0.6736942135301182  0.1707786988034055
  0.7239435519785002  0.6559485159142950  0.4935452643117441
  0.7289831440686771  0.6617421048898025  0.8334671261849563
  0.7356386494009497  0.8717577908950478  0.1613766796518442
  0.7301337604965150  0.8604694070431668  0.5009359146040727
  0.7291762920257066  0.8579541947401483  0.8302946571205608
  0.9356848138390192  0.0672389792434387  0.1584368217607937
  0.9384859572662512  0.0646812817581719  0.4923167624424621
  0.9301170460372199  0.0714236005245520  0.8289258305547463
  0.9364446441029723  0.2631535113507578  0.1789884700660840
  0.9308452701451682  0.2647813903016673  0.5043478783612537
  0.9454629886140409  0.2724164112847262  0.8395971544540201
  0.9279172406589723  0.4649938036786790  0.1672515364375349
  0.9225616194790666  0.4555074387233358  0.5020933993772879
  0.9403325056423251  0.4756422879805636  0.8389356913051335
  0.9323393215771263  0.6682804086156175  0.1692505431071268
  0.9350613780412625  0.6653972690185784  0.5016824184309461
  0.9354068156703064  0.6660347214251401  0.8243456471466003
  0.9355611626232908  0.8689223429100067  0.1726828464589023
  0.9354527370356003  0.8608315009073758  0.5012191078017981
  0.9340169642561599  0.8708145504162993  0.8337797756857602
  0.0689426516072208  0.1352732255202898  0.1236083788882414
  0.0696281217225161  0.1313237611797875  0.4520169261352074
  0.0636207588093082  0.1358804219512863  0.7853273321209319
  0.0674842843517934  0.3348460716956158  0.1299244501006049
  0.0638536978798070  0.3300901854965397  0.4623545738461087
  0.0712597404344594  0.3386631489616780  0.7880345369389127
  0.0628807063935004  0.5317638346383251  0.1250519174248212
  0.0593629978100924  0.5244882291719130  0.4613122249680340
  0.0718997027906966  0.5405197607585055  0.7952535271898797
  0.0642026006464751  0.7379868997472074  0.1281529719949670
  0.0677302446630442  0.7373114964298831  0.4560568224789115
  0.0700840302473261  0.7347817079984739  0.7854967973417036
  0.0702869970565858  0.9391118140630376  0.1311790297011422
  0.0717841033768627  0.9359205870342688  0.4642861039258022
  0.0717400883106001  0.9400404157805806  0.7963184928734193
  0.2760627546912210  0.1409893548887142  0.1245524217095299
  0.2673276983183704  0.1324624810148965  0.4577808514564728
  0.2698693049381848  0.1410069584394225  0.7972923078980361
  0.2685678149722631  0.3347480876274119  0.1269170183355558
  0.2676586029960625  0.3344421094145194  0.4507734911808136
  0.2678442377969048  0.3313155439669696  0.7895555099946984
  0.2737826797378904  0.5418428546549603  0.1271233780076007
  0.2625382370176580  0.5385917303979424  0.4574903281411440
  0.2640111430934971  0.5269484521946923  0.7963326136905816
  0.2621605871574829  0.7353351166608706  0.1239309456983002
  0.2736498856755722  0.7331299170259838  0.4552130843816719
  0.2659631423716562  0.7286716286179363  0.7955062454552441
  0.2697601653525739  0.9395740106693290  0.1313736845783650
  0.2682473305856872  0.9373902290041617  0.4597396355913262
  0.2695664609532181  0.9357839498406754  0.7896485785106403
  0.4717082656789187  0.1373638297754699  0.1220528177385423
  0.4624688036763826  0.1310238078016421  0.4533546713474428
  0.4680286696063062  0.1347428449727629  0.7879183744048234
  0.4788452357866602  0.3450256370145606  0.1225516022528830
  0.4601293166695771  0.3289709497069070  0.4556200929800425
  0.4709051000022624  0.3283325709345052  0.7923406866126825
  0.4666524080754104  0.5492483494957527  0.1255792029774413
  0.4529266187550966  0.5245342368267647  0.4583599405931753
  0.4629068167421223  0.5298107532307120  0.7871696398760315
  0.4717655862673750  0.7404368769246434  0.1233575627036343
  0.4620244598247588  0.7364413914181165  0.4604553130228851
  0.4673822442197972  0.7276622067775316  0.7894772523359407
  0.4671306940881305  0.9369283100925174  0.1229817739211613
  0.4692972904587985  0.9415299771951585  0.4606218256809634
  0.4574699699359815  0.9230545022498747  0.7900756919053219
  0.6665598761482590  0.1394948501410823  0.1323248227099418
  0.6683969745059082  0.1367536739012941  0.4639463258039299
  0.6658177778687072  0.1341410591799127  0.7903663753931304
  0.6704185274367839  0.3348128460981145  0.1248035179576176
  0.6572128755420032  0.3227116800249479  0.4535487063319533
  0.6731711872097605  0.3405562941326655  0.7939973556809449
  0.6680633133894162  0.5419756659093401  0.1226707891110101
  0.6564068627602395  0.5258651138767914  0.4578400949917277
  0.6529480758380899  0.5275192962944221  0.7942843136652614
  0.6649224921444378  0.7339248667553004  0.1175381689787137
  0.6602059737284728  0.7267023626507930  0.4580566041525604
  0.6642117327775745  0.7279190861226118  0.7859575564929338
  0.6675699634088471  0.9367086896136240  0.1237427442207878
  0.6693926225402848  0.9326050052350120  0.4605352619554295
  0.6649869912991188  0.9320100401776767  0.8020724605923555
  0.8672911139904261  0.1321756146769664  0.1289061309807580
  0.8680719806663867  0.1299479829289613  0.4599906640546181
  0.8690612885477466  0.1408916527901927  0.7892883484147526
  0.8692736654868127  0.3311904726167827  0.1332517270324205
  0.8595823390245484  0.3241907822725055  0.4560111194891509
  0.8786928127949758  0.3414493549849997  0.7956407315147581
  0.8627756603025304  0.5345650701110584  0.1267826016661200
  0.8562672965652199  0.5267632718970046  0.4622142032054059
  0.8644261466887944  0.5316831839352415  0.7872490227839944
  0.8659536787790346  0.7352796935805628  0.1272543095394216
  0.8621873747398264  0.7275315589657754  0.4606777307492891
  0.8621092762036326  0.7298115419333960  0.7905445448956385
  0.8683285949558446  0.9323070256701143  0.1247557476582274
  0.8663912932172738  0.9266052936593134  0.4594011919870594
  0.8645839125777044  0.9325506654240168  0.7934243018465519
  0.1394866017425233  0.0607567931665890  0.2948412368906923
  0.1335940072634194  0.0597444421093739  0.6255141717292144
  0.1339003303645399  0.0686598445429015  0.9640347934189616
  0.1319479810525865  0.2657709290677659  0.2909145121703004
  0.1359694063088629  0.2592310269635957  0.6187810193368289
  0.1357828305834816  0.2670408169203385  0.9487130036852212
  0.1355887353151311  0.4667958122353913  0.2944929574528081
  0.1283414085666851  0.4599196806852008  0.6243716912061984
  0.1359870514260058  0.4681132088295123  0.9615003809904930
  0.1361129151800496  0.6641743327918533  0.2919290861281071
  0.1372636030089488  0.6672231933076119  0.6233725679261760
  0.1270369183644353  0.6671538164929917  0.9577974429479182
  0.1427168782137567  0.8707001333900279  0.2926965661966188
  0.1380225734315605  0.8687899879716695  0.6273073607896145
  0.1329879418175466  0.8645139987251300  0.9617916031925103
  0.3397841080789382  0.0772166362171434  0.2906053946587297
  0.3342202080915775  0.0700615664275777  0.6270876101964314
  0.3311545389743328  0.0653871196777869  0.9572159030265046
  0.3299536378458020  0.2739483047347313  0.2889047331878524
  0.3311204922161923  0.2597068526301444  0.6198012978375401
  0.3347468996563984  0.2697916131193482  0.9627822342811073
  0.3295251681769317  0.4691374254484964  0.2915154917090310
  0.3272481137692367  0.4608895958357444  0.6189502284530510
  0.3297067146788691  0.4612052237656004  0.9594273385285552
  0.3291382248217152  0.6667198966724244  0.2878583635603108
  0.3323225802183752  0.6545443065935919  0.6282364652083110
  0.3362293907169026  0.6643566331558726  0.9621214330315556
  0.3430387146755207  0.8754528551324643  0.2864740859802708
  0.3297297445991624  0.8618434001497426  0.6262650814377180
  0.3250888466849576  0.8552128056042214  0.9606052389213700
  0.5335100896293067  0.0715679623541566  0.2889963832135029
  0.5294737778928432  0.0640136267454268  0.6268062438516689
  0.5321243004779368  0.0619276853231981  0.9560345963804697
  0.5356904003561727  0.2819857872953725  0.2896636656946137
  0.5386811037489762  0.2685143109911174  0.6259507069547413
  0.5353073461997717  0.2670066478931193  0.9609370704088036
  0.5239253403487864  0.4726469670923876  0.2891735200613216
  0.5245778856629805  0.4617479503566806  0.6246065033809030
  0.5240178823457976  0.4672204324840864  0.9593498510264231
  0.5360353117243376  0.6759456010533855  0.2968653670757136
  0.5316659539985882  0.6554693634513233  0.6123074260947402
  0.5357385568411374  0.6621080877502690  0.9514086921886749
  0.5320821789308428  0.8657628993480254  0.2931565995399179
  0.5366064475873430  0.8620555399134281  0.6323016527726073
  0.5334195681879907  0.8646737174060409  0.9596654305992707
  0.7381777757509913  0.0751774551722031  0.2961519020662278
  0.7344554401039903  0.0676776283455466  0.6309519070808469
  0.7307473022284858  0.0676307041235106  0.9629479145556215
  0.7288341067032066  0.2686236766380424  0.2937437211985021
  0.7345573135250366  0.2681634399911719  0.6316033439440498
  0.7380735441840379  0.2698509555758119  0.9643308474322263
  0.7312408858456617  0.4752549954011867  0.2913709394435446
  0.7261850813910455  0.4648432087782075  0.6240552852143489
  0.7270093022094799  0.4629905915321474  0.9591859593098219
  0.7347788394749891  0.6718187912963968  0.2936393861941333
  0.7256247383171908  0.6534677219118392  0.6152986751197639
  0.7352585514154573  0.6640975386778464  0.9593452394748279
  0.7401809733331814  0.8750707182712950  0.2876954767350789
  0.7277942465698849  0.8626506072398130  0.6249939475760190
  0.7320077378808325  0.8629973010193646  0.9569069080088007
  0.9393803163304455  0.0726809208832961  0.2880827040607802
  0.9304200757895347  0.0650105965770131  0.6223552300319622
  0.9283521527084500  0.0629132167657658  0.9533010100221234
  0.9363561046705509  0.2683695129973341  0.3007980362994981
  0.9396268967675352  0.2725569036750467  0.6282181677535500
  0.9402757745825762  0.2636686295709059  0.9661949997192787
  0.9327652659185020  0.4684364584663912  0.2898920274948699
  0.9372643623863554  0.4725141135972233  0.6285125975842758
  0.9339564295553593  0.4662730462423476  0.9642312665191833
  0.9306843901423689  0.6631920318853830  0.2927239317449197
  0.9317938096071346  0.6627323617988103  0.6253031415814303
  0.9226334473793630  0.6573597335845692  0.9585624103089585
  0.9371240038913036  0.8704399066623648  0.2979835164669691
  0.9297376064250840  0.8614357201118676  0.6281491205028727
  0.9327388524184194  0.8633629025668426  0.9620678909872531
 
 -0.12336285E-02 -0.24722518E-02  0.40413613E-03
 -0.94816787E-03  0.16927901E-04 -0.31553066E-02
 -0.23978510E-02  0.49737577E-02  0.49766414E-02
 -0.13471723E-02 -0.14564334E-02  0.17447091E-02
 -0.15096917E-02  0.25531058E-02 -0.39109718E-02
  0.67452928E-02 -0.11610385E-02  0.10272743E-02
 -0.36673502E-03  0.43343958E-02  0.20692886E-02
  0.19209521E-02 -0.28165425E-02 -0.32055544E-02
 -0.95527114E-03 -0.26294929E-02 -0.46005828E-04
 -0.51345705E-04  0.24617479E-02  0.44223406E-02
 -0.28993975E-02 -0.60058929E-03  0.17928568E-02
 -0.29736887E-02  0.28016268E-03 -0.37033994E-03
  0.12969201E-02  0.38751056E-03  0.41469758E-03
 -0.17203571E-03  0.13832069E-02 -0.36772602E-02
  0.15274804E-03  0.25475699E-03  0.27093913E-02
 -0.27490210E-02 -0.14847707E-02  0.25392715E-02
  0.11194617E-02  0.64796492E-03 -0.27165876E-02
 -0.24103803E-03  0.15194470E-03 -0.11495729E-02
  0.23900334E-03 -0.39796230E-02  0.38925776E-03
 -0.13855446E-03  0.27814952E-02 -0.10138528E-02
  0.53888866E-02  0.24395911E-02 -0.11964877E-02
 -0.42401464E-02  0.46059319E-03  0.19177192E-02
  0.34235119E-02  0.12441680E-02 -0.13417068E-03
  0.39736465E-02 -0.28597921E-03  0.20522946E-02
 -0.93786881E-03  0.35539832E-02  0.45182843E-02
 -0.16011829E-02 -0.99587671E-03  0.41066552E-03
 -0.87684062E-03 -0.10992781E-02 -0.23456619E-02
 -0.13556928E-02 -0.13579973E-02 -0.66734810E-02
  0.57984802E-03  0.86260993E-03  0.20318619E-03
 -0.13221122E-02 -0.42592354E-02  0.19441057E-02
 -0.47184025E-03  0.24011976E-02  0.11495644E-02
 -0.29266218E-02 -0.28136882E-02 -0.39689090E-02
 -0.21277762E-02 -0.39146885E-02  0.36453167E-02
 -0.11022830E-03 -0.14981469E-02  0.44777092E-02
 -0.33678362E-03 -0.15901130E-02  0.16063159E-03
 -0.10885151E-02  0.59987119E-02 -0.25010273E-03
 -0.18865211E-02  0.43419616E-03 -0.36170558E-02
 -0.22870511E-02  0.20663440E-03  0.27638275E-02
 -0.11220694E-03  0.18528075E-02  0.10328000E-02
  0.34465238E-02 -0.22149685E-03 -0.32522182E-02
 -0.32055390E-04  0.35146904E-03 -0.32033747E-02
 -0.15023413E-02 -0.14454675E-02 -0.76960908E-03
  0.38878211E-02  0.29244883E-03  0.15622001E-02
 -0.48116135E-02 -0.36821290E-02 -0.13303606E-02
  0.98339315E-04 -0.46479662E-02  0.12503996E-02
 -0.22972164E-02 -0.73904060E-03 -0.42081374E-02
 -0.19490915E-02 -0.30602488E-02  0.30890794E-02
 -0.22483286E-02 -0.31583709E-02  0.83720087E-03
  0.49563011E-03  0.29522619E-02  0.38086673E-02
  0.72950470E-03 -0.25965156E-02  0.40407602E-03
  0.14367099E-02  0.14832991E-02  0.10760627E-02
  0.21820157E-02 -0.15513066E-02 -0.25736235E-03
  0.69843859E-03  0.22076056E-03  0.26442638E-02
  0.52191502E-03  0.71100513E-03 -0.16493350E-02
  0.15843305E-02 -0.16406173E-03  0.10232685E-02
  0.11603118E-02  0.18541561E-02 -0.34671680E-02
 -0.15572996E-02  0.19517899E-02  0.55791297E-02
  0.44393451E-03  0.22835100E-02  0.36999994E-02
  0.89228624E-03  0.14373568E-02  0.16093076E-03
 -0.61108276E-02 -0.27290159E-02 -0.27885327E-02
  0.92466495E-03  0.10699209E-02  0.13913572E-02
 -0.24139057E-02  0.41080309E-02  0.17544345E-02
 -0.48939787E-03 -0.22261405E-02 -0.65528329E-03
 -0.22429790E-02 -0.66695916E-03  0.56028095E-02
 -0.10366043E-02 -0.47382410E-02 -0.66080502E-02
  0.11489909E-02 -0.85955365E-03  0.31996160E-02
 -0.84593043E-03  0.14040230E-02 -0.70183603E-02
  0.22176334E-02  0.20342146E-02  0.27767848E-02
  0.16193930E-02 -0.30596361E-02  0.31364270E-02
 -0.44930983E-02  0.63860575E-03  0.13581993E-02
 -0.34189293E-02  0.12854811E-02 -0.20129048E-02
 -0.55153560E-03 -0.19229743E-02 -0.49374079E-03
  0.16908148E-02  0.39108777E-02  0.89962695E-03
 -0.48492557E-02 -0.37968402E-02  0.35218845E-02
 -0.22130227E-02  0.21378971E-02  0.56135008E-03
  0.38079710E-02  0.22233884E-02 -0.28605192E-02
  0.87364516E-03  0.52775988E-02 -0.24070875E-02
 -0.20434860E-02 -0.81074224E-03 -0.56092026E-03
  0.10160034E-02  0.46659918E-02 -0.12025326E-03
  0.34387889E-03  0.21409109E-02  0.80209142E-04
 -0.49663182E-02 -0.24633763E-02 -0.39826324E-04
 -0.61501655E-03  0.25057888E-03  0.47860754E-02
  0.33481798E-02  0.62738137E-03  0.15865999E-03
  0.16469841E-02 -0.22722200E-02 -0.15723276E-02
 -0.20658701E-02 -0.28878302E-03 -0.10987172E-02
  0.11661016E-02 -0.77434837E-02 -0.54549588E-02
  0.17923990E-02 -0.74349363E-03  0.70246498E-02
 -0.22065977E-02  0.52589915E-03  0.25298670E-02
  0.27635386E-02  0.13907281E-02  0.50522549E-02
  0.79833497E-03 -0.28389967E-02 -0.51764960E-02
  0.20648362E-03  0.41031851E-03 -0.18893568E-02
 -0.71197138E-03 -0.29691987E-02 -0.56030507E-02
  0.93974353E-03  0.46474976E-02 -0.44889012E-03
 -0.34570957E-02 -0.57924050E-02 -0.17251880E-02
 -0.10112607E-02  0.58596864E-03  0.40844428E-02
  0.29803934E-02  0.49065971E-02 -0.32231362E-02
  0.27678736E-03  0.24282756E-03 -0.42640900E-02
 -0.32742442E-02  0.13961291E-02 -0.69952802E-03
  0.15871620E-02  0.18149380E-04 -0.14670712E-02
  0.30126869E-03  0.27574666E-02  0.54732391E-02
  0.29374663E-03  0.12463014E-02  0.28299144E-02
 -0.15925684E-02 -0.81539278E-03 -0.32933586E-02
  0.52497903E-02  0.60929246E-03  0.99036663E-03
  0.10883981E-02  0.39029423E-02  0.29219794E-03
 -0.82451005E-03 -0.24786061E-02 -0.26318422E-02
  0.14025790E-02  0.50126976E-02  0.39472867E-03
  0.38632289E-02 -0.79015908E-03  0.29490810E-02
 -0.21383324E-02  0.16684894E-02 -0.45594329E-02
  0.90072194E-03 -0.41736430E-04  0.15009794E-02
 -0.18862582E-03 -0.72308317E-02 -0.22981879E-02
  0.12781583E-02 -0.19297261E-02  0.34709867E-02
  0.30352169E-03 -0.50116289E-02 -0.39329264E-02
 -0.17537323E-02 -0.29045614E-02  0.54304424E-02
 -0.78879473E-02 -0.13786227E-02 -0.13221542E-02
 -0.74460006E-03  0.33710939E-02 -0.12278646E-02
  0.15297279E-02  0.32282693E-02  0.33396086E-04
  0.19421727E-02 -0.55953289E-02  0.20219140E-02
 -0.12394580E-02 -0.46539797E-03  0.13370496E-02
 -0.23801936E-02 -0.15897560E-04 -0.25456627E-02
 -0.53537882E-03 -0.44582851E-02  0.15102914E-02
  0.10362500E-02 -0.17830076E-02  0.41178283E-02
  0.27329760E-02  0.27786378E-02 -0.17578216E-02
 -0.53095682E-02 -0.35905595E-02  0.17197280E-02
  0.12636171E-02  0.49648185E-02 -0.10295687E-03
 -0.36461389E-04  0.27836410E-02 -0.32938307E-03
  0.31675204E-02 -0.16879884E-03 -0.22186476E-02
  0.88404380E-03 -0.12615728E-02 -0.22875963E-02
  0.31422407E-02 -0.18557036E-03 -0.34705517E-02
  0.92965073E-03  0.37721799E-02 -0.61310755E-03
  0.19421274E-02 -0.23821203E-02 -0.51309910E-04
 -0.13438718E-02  0.65489817E-02  0.16182820E-02
  0.56487296E-02 -0.76528977E-04  0.49835728E-03
  0.12928424E-02 -0.24401737E-02  0.26589472E-02
 -0.29483218E-02 -0.32219335E-02 -0.19157174E-02
  0.28700990E-02  0.79128272E-03  0.15018865E-02
  0.25993849E-02 -0.14422809E-02  0.63603345E-03
 -0.87601158E-03 -0.14258361E-02  0.32904567E-02
  0.22478587E-02  0.48267512E-02 -0.42177760E-02
  0.20207761E-02 -0.12751079E-02 -0.36177222E-02
  0.80247117E-03  0.45234015E-03 -0.46845390E-02
  0.25024950E-02 -0.22518067E-02 -0.28178991E-02
 -0.14045486E-02  0.16089467E-02  0.57530215E-03
  0.22877417E-02  0.67257487E-02  0.21934482E-02
 -0.27472331E-03 -0.54473148E-02 -0.49591603E-02
  0.15343894E-02  0.26840016E-02  0.98089338E-03
  0.18140398E-02  0.26938206E-02 -0.23848539E-02
 -0.24068213E-02 -0.36572499E-02 -0.45916517E-03
 -0.23407005E-03  0.44808935E-02  0.16881389E-02
 -0.47699937E-03  0.34889236E-02 -0.51253240E-02
 -0.83163623E-03 -0.55870262E-02 -0.71442561E-03
  0.57112915E-02  0.26498446E-03 -0.24803637E-03
  0.44716571E-02  0.70494398E-02 -0.26505125E-02
  0.22374287E-03 -0.18652260E-02  0.88018598E-03
  0.44040116E-02  0.40430717E-02  0.19972935E-02
  0.66715846E-02  0.37500123E-02 -0.26459434E-02
  0.29824056E-03 -0.33304249E-02 -0.13115673E-02
 -0.41876516E-02 -0.27641705E-02  0.58833962E-02
 -0.32057668E-02  0.73903048E-02  0.43566549E-03
  0.79212342E-02 -0.37431992E-02 -0.35098971E-02
  0.32293159E-03 -0.43771271E-02 -0.50802518E-02
  0.29860071E-02  0.61399174E-03  0.93157715E-02
 -0.33426474E-02 -0.25573779E-02 -0.20345159E-02
 -0.65578560E-02  0.27888193E-02  0.49989841E-02
  0.36966281E-02  0.71279379E-02  0.58630182E-03
 -0.12500522E-02 -0.45389666E-02 -0.19357322E-02
 -0.65981709E-02  0.26240586E-03  0.25841631E-02
  0.25960967E-02  0.27230135E-02 -0.50313109E-02
  0.12859321E-02  0.30153735E-02 -0.11211876E-01
  0.23601327E-02 -0.10075585E-02  0.51844292E-02
  0.89144352E-02  0.18561908E-02  0.23585475E-03
 -0.51409367E-03  0.26809630E-02  0.91876176E-03
  0.12822585E-02  0.14373630E-02 -0.28760202E-02
 -0.42613146E-03 -0.21502941E-02 -0.73091182E-03
  0.20541064E-02 -0.25791185E-02 -0.21300931E-02
 -0.62892947E-03 -0.50987178E-02  0.84947245E-03
  0.25254688E-02  0.22777695E-02 -0.27464711E-02
  0.30704477E-03 -0.25058020E-03  0.36277708E-02
  0.24997789E-02  0.27762953E-02  0.53982414E-02
 -0.64735628E-03  0.34048478E-02 -0.43376965E-02
  0.86633747E-03 -0.14162309E-03 -0.95406449E-04
 -0.28702520E-03  0.93238254E-02 -0.12645289E-02
 -0.21101012E-02 -0.22081074E-03 -0.15045884E-02
  0.22719427E-02 -0.26711920E-02  0.25974308E-02
 -0.11072171E-02  0.74994611E-03 -0.83420037E-02
 -0.20244386E-02 -0.16261196E-02  0.42480146E-02
 -0.45679585E-02  0.37466077E-03  0.25209277E-02
  0.73836175E-02 -0.96384387E-02  0.40139025E-02
 -0.10534991E-02 -0.19812280E-02  0.22058116E-02
 -0.12903196E-02  0.34153222E-02  0.21399349E-03
 -0.64872597E-02 -0.14212296E-02  0.45239066E-02
 -0.49860578E-02 -0.41521779E-02 -0.27963637E-02
  0.14757485E-02 -0.11705499E-02 -0.27970214E-02
  0.20259316E-03 -0.36960489E-02  0.40570603E-02
  0.14295832E-02 -0.22382982E-02  0.64019840E-02
 -0.43964193E-02 -0.58888489E-02  0.23362742E-02
  0.13962797E-02  0.12727140E-02 -0.19043964E-02
 -0.47086079E-02  0.35496575E-02  0.86479834E-03
 -0.58353219E-02 -0.31279364E-02  0.19002370E-02
  0.28465749E-02  0.96682710E-02  0.29621700E-02
 -0.72988192E-03  0.85655923E-02 -0.11261341E-02
  0.29301756E-02  0.33472858E-03  0.43758725E-02
  0.62522412E-02 -0.63065655E-02 -0.29858032E-02
  0.19056873E-02 -0.53761320E-03 -0.43596263E-02
  0.39270086E-02  0.68704850E-02 -0.34892875E-02
 -0.16553411E-02 -0.30270616E-03  0.42688418E-02
 -0.56921601E-02 -0.37431293E-02 -0.59480787E-03
  0.60013780E-02  0.37757717E-02  0.40715839E-02
 -0.26003663E-02  0.50116937E-02 -0.31972421E-02
 -0.23309661E-02 -0.62857052E-03 -0.60743755E-03
  0.21909302E-02 -0.16107594E-03 -0.79384995E-03
  0.49533868E-02  0.29427729E-02  0.19403288E-02
  0.64237754E-02 -0.19458179E-04 -0.96972894E-03
 -0.58802686E-02  0.67484992E-02 -0.24389079E-02
  0.41251021E-02 -0.28795415E-02  0.16405709E-02
  0.68027033E-02 -0.17427764E-03  0.30607890E-02
  0.50704375E-02  0.29571383E-02 -0.17545030E-02
  0.77216495E-03 -0.82308404E-02  0.50615518E-02
  0.74191383E-02 -0.53707588E-02 -0.24078681E-02
  0.30250974E-02 -0.82092468E-03  0.36248287E-02
 -0.51160414E-02  0.60376907E-02  0.53664610E-03
 -0.41355738E-02  0.76604140E-02  0.14751266E-02
 -0.36660801E-03 -0.17731754E-02  0.45146862E-03
 -0.20036137E-02  0.84515941E-02 -0.20342369E-02
  0.63997905E-03  0.82462277E-02 -0.44928856E-02
  0.53409220E-03 -0.67422971E-02 -0.35952883E-03
 -0.13353553E-02 -0.18163548E-02 -0.27428451E-02
 -0.45245015E-02  0.61800797E-02  0.16517504E-03
  0.24556845E-02 -0.10249622E-02  0.37307606E-02
 -0.93879636E-02 -0.14323640E-02 -0.58868479E-02
 -0.81758298E-02  0.36418866E-02 -0.35402776E-02
  0.16663381E-02 -0.53641368E-02  0.84447203E-02
  0.58424977E-03 -0.28684799E-02 -0.74120807E-03