Ga150 N150                              
   1.00000000000000     
     8.0482965387795637  -13.9400700962268846   -0.0000003151961981
     8.0482906673966994   13.9400667053525016   -0.0000002254193136
    -0.0000005268402214    0.0000000487389220   15.7345155301750257
   Ga   N 
   150   150
Direct
  0.0692587997430339  0.1346211441523506  0.3351370157123086
  0.0654147650311419  0.1270839901476823  0.6588868632252248
  0.0720573980688191  0.1327580396454023  0.9931171847715864
  0.0636556524854918  0.3304571421151763  0.3347797917616293
  0.0702994839606816  0.3309637869353271  0.6659169689813296
  0.0649926256277193  0.3292321163643617  0.0048257073416803
  0.0624836375726618  0.5348802857727455  0.3407395093068913
  0.0748183163601327  0.5333390158671231  0.6676974736629837
  0.0733277122780226  0.5314064723506778  0.9998026418083533
  0.0665584615945081  0.7287910863658116  0.3286179775931560
  0.0695297887160089  0.7346708940986681  0.6655819058801177
  0.0622030405764697  0.7291778671089317  0.9988970282184384
  0.0702819797740935  0.9250657952734638  0.3340622285358448
  0.0689178601456665  0.9285786682019888  0.6755213564928749
  0.0616021273560092  0.9295908106771351  0.0045838065764096
  0.2639104004441633  0.1451874643775605  0.3421575922912167
  0.2712792920210428  0.1407068350438617  0.6672025666890992
  0.2667871877256613  0.1311711451574281  0.0067379832326155
  0.2594746856079762  0.3387153850691306  0.3284961535650082
  0.2708215755996249  0.3328453951879078  0.6696891145111666
  0.2638815359789956  0.3286850131950127  0.9963720932109917
  0.2620366931071655  0.5393930475191496  0.3268428643692081
  0.2715304770236863  0.5256271930859328  0.6763709641996125
  0.2703816385432752  0.5255185461100694  0.9997878396078200
  0.2682936899089036  0.7399713120881871  0.3326903429126902
  0.2653563709611053  0.7201897246778463  0.6688744879537657
  0.2660328466874384  0.7282431498569324  0.9990373446532700
  0.2739478482481229  0.9371650902225598  0.3319127950847763
  0.2672324142073549  0.9297720828011525  0.6644650188260594
  0.2742071004095163  0.9324632509728301  0.0086975274638776
  0.4651523264557477  0.1425179329437067  0.3343840693160272
  0.4707075740348975  0.1338114017311011  0.6598657396465225
  0.4668633093674509  0.1330360125690110  0.9879191558657516
  0.4570556329753879  0.3437658798381560  0.3296840608288247
  0.4631557175801930  0.3385438747570185  0.6690808432318875
  0.4665610019423928  0.3318701909729964  0.9935275952796754
  0.4667587410498928  0.5514676946667690  0.3352828758076960
  0.4646946162489042  0.5307367696389483  0.6720648869649836
  0.4673383436790084  0.5340514721701838  0.9968729626138252
  0.4695050382731965  0.7404251976019985  0.3305458434701199
  0.4695014532023629  0.7297406745222796  0.6632713570850103
  0.4716162939469031  0.7344477375612305  0.9981254683074642
  0.4655853311364790  0.9393730673509660  0.3354351532684229
  0.4669975727162699  0.9299400622285455  0.6609808558991060
  0.4688009980921555  0.9319323848407803  0.9980242083026705
  0.6650715713664788  0.1328267719349852  0.3260786111756046
  0.6729597737851788  0.1318376892084152  0.6563992840228063
  0.6668181685608536  0.1353974796051878  0.0081829709108788
  0.6634288829648827  0.3395126061973053  0.3347254157234911
  0.6676802838213654  0.3377602168379490  0.6680123547594660
  0.6694638014564847  0.3385609445939223  0.9947173700265326
  0.6578895226865913  0.5450369579031701  0.3327744557783800
  0.6593836336971786  0.5320742414904753  0.6734728486146484
  0.6665002517917410  0.5281772869223201  0.9972812738383091
  0.6669878567507088  0.7413443544317958  0.3324925843368316
  0.6646738239563778  0.7216955471397027  0.6652701429969176
  0.6681982216886566  0.7269730694256180  0.9915937000095814
  0.6647037419566877  0.9373410271299747  0.3328533221598191
  0.6657916412700593  0.9276296786554404  0.6684250400901646
  0.6647428527015918  0.9298187960931988  0.0005430864164482
  0.8665750761572745  0.1369815224759942  0.3362228070526344
  0.8677340553766084  0.1346242126882113  0.6701679548688575
  0.8651858687807549  0.1312554207069180  0.0000979416419448
  0.8660227848762538  0.3335462853531910  0.3306745095617379
  0.8680124376937611  0.3329407310320483  0.6628104062473482
  0.8647787618856747  0.3295935714986666  0.0082630657986837
  0.8556869604308617  0.5235903577339110  0.3388594990172403
  0.8666081556437688  0.5286460840356217  0.6603165341239079
  0.8688972019334600  0.5342150978457922  0.0047110825956597
  0.8709349965471199  0.7306058844007245  0.3334098043907792
  0.8574794477401202  0.7215723046990193  0.6697945810559633
  0.8677966070930232  0.7313045649282458  0.0013728843737818
  0.8717480344065014  0.9398687764545712  0.3312774067734376
  0.8651754803209093  0.9297385091982748  0.6633379842566863
  0.8655152483982728  0.9318513469548662  0.9943984397193917
  0.1371329358528237  0.0670054378492114  0.1718873582867495
  0.1382113462675191  0.0721305928239180  0.5036718837672920
  0.1382173035933594  0.0734543954861758  0.8343943841424182
  0.1328954322703021  0.2650298854521188  0.1646761754932630
  0.1359094725084037  0.2710942640573404  0.4979036291167033
  0.1256068569328281  0.2662803653869641  0.8287780674609807
  0.1304494147576673  0.4640876536803447  0.1673838632423235
  0.1346972659797499  0.4658268251384516  0.4987778133921146
  0.1369966439817714  0.4691889474902532  0.8341687244198311
  0.1339134949952211  0.6632783040221586  0.1621452245123836
  0.1324040932656272  0.6665063687677028  0.4970253053288726
  0.1269239199949303  0.6651400231783103  0.8240744954582163
  0.1354288488789216  0.8638330131575224  0.1667164756759436
  0.1361558702710228  0.8684723564295763  0.4983739869626143
  0.1355332242173412  0.8692597532645292  0.8473265250932578
  0.3357995919188668  0.0703933483935268  0.1692793477717742
  0.3320647053909342  0.0662848074466345  0.5055037328396358
  0.3318546316163734  0.0625874805035590  0.8314961576275074
  0.3335957077580246  0.2710571730534250  0.1650201018677706
  0.3290672668788304  0.2751436004746946  0.5001336221458992
  0.3377463508754309  0.2662687401215972  0.8395216892215032
  0.3348085537768805  0.4678448768809352  0.1628104602625211
  0.3268790625219601  0.4680727990069626  0.5066004581198689
  0.3361089821334461  0.4567414123690934  0.8377395070157202
  0.3398843613368709  0.6740877048105607  0.1610585319262020
  0.3339269999071291  0.6689765432277931  0.4953740290170291
  0.3316292400067034  0.6633658652164346  0.8403657535920370
  0.3387279868785380  0.8687758750604825  0.1642346709856051
  0.3371866584967723  0.8664033014062071  0.5013562354286577
  0.3273824419622172  0.8603790891693971  0.8308451499720435
  0.5308425619518431  0.0693301940777537  0.1684473843961320
  0.5406979028716505  0.0740669075478516  0.4929034939704507
  0.5413461090706704  0.0697344603624044  0.8280289303690742
  0.5296098753615924  0.2735820540488783  0.1598505889683794
  0.5229809161953470  0.2765006941470610  0.4960264325940835
  0.5392420372494769  0.2598008990231244  0.8263182624941889
  0.5363608858987868  0.4766508793876729  0.1615921300643978
  0.5267860107089811  0.4766260964720263  0.4968842552746369
  0.5220862340838285  0.4541857626470903  0.8408641748282697
  0.5413031286259464  0.6773636818116331  0.1630409900962846
  0.5272268513286084  0.6697115331081813  0.4974369596172480
  0.5335368948677871  0.6698319112093413  0.8346639477713468
  0.5384288310502106  0.8708025427311448  0.1635806818739053
  0.5357310214851310  0.8690694790912419  0.4971057796775473
  0.5251860990542919  0.8676349160075822  0.8361859388150708
  0.7346623322280641  0.0688836365273753  0.1699888714244972
  0.7331231285253189  0.0657674142781025  0.4991667324808820
  0.7333592766293497  0.0660020773063613  0.8326598669787333
  0.7306668654224018  0.2685173330215721  0.1724436290473987
  0.7293074867185895  0.2670115025340935  0.4996994413889747
  0.7309005118741205  0.2556049752758862  0.8343720186235274
  0.7361651247726502  0.4667956322072430  0.1677480966433108
  0.7289852427049358  0.4705963782584068  0.5033770980160354
  0.7366683474638817  0.4685697866275014  0.8333784350107970
  0.7324223368475093  0.6658761489899925  0.1603018312259344
  0.7274771394833046  0.6625535728307500  0.4974390288677702
  0.7344290512664112  0.6600256237911862  0.8411159157802218
  0.7346587895483191  0.8651732511000503  0.1609103012248819
  0.7306972239889373  0.8602824344989712  0.5002163858524389
  0.7361608938073370  0.8579052691607592  0.8276801256969383
  0.9363494911720739  0.0647579879079295  0.1601962414303519
  0.9331474708024414  0.0652750688475692  0.4964010593302313
  0.9333141779723448  0.0637783943051745  0.8236832334772586
  0.9280647461216742  0.2584091598006701  0.1707406099288633
  0.9295224602363311  0.2619808090029090  0.5025184385583936
  0.9344941404072098  0.2729709847870227  0.8378710784131109
  0.9322204273647420  0.4648198183785943  0.1698785004142977
  0.9294798501708218  0.4632001139260729  0.5014040635369607
  0.9383563661666318  0.4683237908022948  0.8356628729453438
  0.9355164968075542  0.6630643573118584  0.1701086439918649
  0.9377119375669325  0.6685988957027434  0.5003528048299698
  0.9287789663936655  0.6630739091026188  0.8280977557714260
  0.9332437671286840  0.8642017795264008  0.1726806334131051
  0.9349501660921281  0.8622278612735604  0.4994113476346981
  0.9342406301675554  0.8741604977405983  0.8298429814426085
  0.0726775412883644  0.1337347271368021  0.1241789360845657
  0.0711703341084918  0.1364180018659416  0.4601686469026431
  0.0668810933695314  0.1328303958817212  0.7874480637999344
  0.0649438010660664  0.3282412630119078  0.1309568361989434
  0.0607511588993451  0.3321105859753429  0.4606514012102088
  0.0662910068553688  0.3380462283726693  0.7889940736513292
  0.0627553754643062  0.5301703239357703  0.1264979420207045
  0.0670051022089746  0.5340009961569540  0.4616281933620704
  0.0699905479798284  0.5326664885333762  0.7925837421514716
  0.0677016839311051  0.7288747224628560  0.1216819771195128
  0.0692841734700846  0.7373735072585660  0.4575501096178232
  0.0632939046900692  0.7367604084573710  0.7890486556587366
  0.0661607316801531  0.9300984707250342  0.1305310991777858
  0.0717559284316801  0.9371889141582439  0.4603281227806537
  0.0684085471289388  0.9363933729699492  0.8018832766300630
  0.2661841658683535  0.1365210012231743  0.1294752315611415
  0.2680650303136625  0.1381426607056688  0.4631028158457150
  0.2757195117472420  0.1403201443660445  0.7921912247695099
  0.2677497385709910  0.3385490223511420  0.1244557434730969
  0.2650799902720617  0.3414075071347932  0.4545528147118125
  0.2630333290344092  0.3255286009559960  0.7942435272856501
  0.2623596294828722  0.5343369085520771  0.1219909983727191
  0.2609707805124963  0.5345408926355679  0.4587930846856587
  0.2743061207505225  0.5306336385374009  0.8014055644283109
  0.2658694742285442  0.7342319044440597  0.1258953651837026
  0.2687087020143437  0.7346838065381295  0.4580323390526070
  0.2600685817215352  0.7239001805363069  0.7929872587630035
  0.2732436604300833  0.9356668720079893  0.1337232423802800
  0.2737517803411196  0.9357177021554938  0.4601116029974158
  0.2605105070646473  0.9298321491485276  0.7932157240831137
  0.4640626992889305  0.1383519179257870  0.1174879570361380
  0.4631422593014161  0.1414031360473928  0.4589859293139123
  0.4673651538156391  0.1265573490490421  0.7871217416726422
  0.4687382622554768  0.3409725172775690  0.1214074562066912
  0.4589023225099652  0.3433922433538322  0.4548928101890313
  0.4669093790440834  0.3271832602096351  0.7883900736456937
  0.4673521979926132  0.5422843580854828  0.1222223806934040
  0.4593069540847105  0.5400176108575857  0.4582326259124522
  0.4712998550525701  0.5328011698705882  0.7930903857844552
  0.4701096319843949  0.7365909849620310  0.1240772372264040
  0.4675248923262784  0.7381459523976612  0.4573583691235725
  0.4640028297676281  0.7327542709045854  0.7925492975681430
  0.4720935458042649  0.9378770260180234  0.1228205849141710
  0.4725354573996967  0.9381139820576778  0.4610332531976997
  0.4632614610996607  0.9341450676964321  0.7902924930102040
  0.6619323625241221  0.1336541698824391  0.1332239036530926
  0.6678949391644208  0.1354951838334285  0.4562127246703796
  0.6702309382471980  0.1290039336846777  0.7834866945178236
  0.6709908050588056  0.3406160056192036  0.1206196803467384
  0.6659252805102959  0.3383628946836399  0.4575121535210192
  0.6715638574544598  0.3319701971872419  0.7931394528148783
  0.6692605293098820  0.5321309228667065  0.1249799407193427
  0.6604074572154455  0.5299401239952849  0.4545384171384672
  0.6587716116006728  0.5285098093619397  0.7974346472398324
  0.6747850442505795  0.7345326751721772  0.1188946447156585
  0.6622041406341045  0.7267940642927941  0.4594846260821857
  0.6631432092033055  0.7224026938428363  0.7943838149078437
  0.6667671539937500  0.9335410612259447  0.1240260421118699
  0.6655680609432824  0.9298912959908850  0.4595230959699130
  0.6650252043569070  0.9294762442019749  0.7952946607639584
  0.8652705065149161  0.1289934729791926  0.1246545798520959
  0.8669976175957130  0.1323491167388669  0.4584468521349165
  0.8680649898648051  0.1351149321724290  0.7964388380900566
  0.8646300545523826  0.3246015601230609  0.1305631791245841
  0.8636237915952776  0.3275831867639245  0.4587515010185638
  0.8650455614531025  0.3339984653079278  0.7914494268116401
  0.8667165461544937  0.5323687402551164  0.1279684867552824
  0.8625915276000250  0.5304920214080778  0.4635930230920602
  0.8664419450198734  0.5294659044380313  0.7903771953105047
  0.8704027053831862  0.7341573055930137  0.1270284885812706
  0.8635787165434053  0.7309146534647372  0.4606573824420746
  0.8632491124075176  0.7308728144786653  0.7956449561475085
  0.8682337727621086  0.9304521059572173  0.1230344796541870
  0.8664281928493879  0.9302018207999062  0.4579695622066281
  0.8631246694766179  0.9333439831539276  0.7835092231932699
  0.1343065308342030  0.0653743097709802  0.2974848914509067
  0.1352942301778820  0.0613821896543491  0.6320559901804039
  0.1384392753257729  0.0652726932854774  0.9580770858066365
  0.1284153724966081  0.2661206726618895  0.2894854834471538
  0.1338266975533797  0.2640193889323692  0.6223471027297256
  0.1335412480784831  0.2663022606946771  0.9557469858989651
  0.1268914929601647  0.4669129895183964  0.2924885729947908
  0.1435182177146445  0.4665773188083540  0.6266110727217146
  0.1377544616627135  0.4629301653454220  0.9597281491729885
  0.1330970492261498  0.6633996928462428  0.2944087837503155
  0.1359224784975802  0.6659277873267839  0.6258323523168183
  0.1326372400927658  0.6644356219925114  0.9569266962867491
  0.1367997991248651  0.8639955163921131  0.2909015889026556
  0.1356445065897858  0.8685752298974043  0.6224813964582208
  0.1378117953804620  0.8660617121803137  0.9688696281012537
  0.3311730453060202  0.0731162927545134  0.2954648540921754
  0.3323884997471752  0.0664466669259897  0.6328834459660773
  0.3304649867152535  0.0623815934227357  0.9589264360902172
  0.3261607245422203  0.2751416845191780  0.2880061954599033
  0.3314782548239606  0.2711673773084970  0.6218542075173739
  0.3327691880902525  0.2625859640913326  0.9633600075105181
  0.3305600028221962  0.4781146141943404  0.2899084983796414
  0.3336998264435055  0.4627413736390898  0.6262183441767523
  0.3374449184443629  0.4593846115503245  0.9602380348834270
  0.3357117583226472  0.6768921796896842  0.2864029377080749
  0.3355420892331242  0.6589744658237934  0.6241944045729388
  0.3339981240177941  0.6603754389018031  0.9640476816157010
  0.3368744901503629  0.8710036782701041  0.2908191951559272
  0.3347797337822198  0.8612244844248801  0.6291471376203502
  0.3365268190568271  0.8632337214888610  0.9579310409630564
  0.5316638550785641  0.0730736990737633  0.2928431834357982
  0.5347821873319323  0.0656522281856963  0.6156028712881266
  0.5364082050006964  0.0692663983352484  0.9540210292409643
  0.5281306729786853  0.2769345177633190  0.2895528836047068
  0.5337385199534636  0.2707476742130237  0.6216032435731013
  0.5362905400643680  0.2655996321826323  0.9514366030735263
  0.5284179884720234  0.4824377206193846  0.2896913434846300
  0.5329169725160857  0.4717134139218884  0.6233162177863660
  0.5311595931300616  0.4645512823063971  0.9607439998746526
  0.5373533215786079  0.6841930035286561  0.2880313500668713
  0.5333649950859117  0.6633709918896706  0.6209907049565773
  0.5336508687086549  0.6631507631723391  0.9593649713844968
  0.5333482594012819  0.8766324937924382  0.2917464499630962
  0.5344238284829671  0.8614333406826964  0.6261590891166172
  0.5341248118655327  0.8636516302062700  0.9600913392737513
  0.7378866111773601  0.0694462672344064  0.2935119814313331
  0.7374562488086362  0.0620259570919481  0.6241314735646644
  0.7290389926122000  0.0636794482594186  0.9644844790874463
  0.7275347289167436  0.2678129113658033  0.2926279506586861
  0.7302649407105150  0.2672103652125649  0.6256924156663264
  0.7326999964176290  0.2658952526309763  0.9603542237466169
  0.7260250445509281  0.4736520753971419  0.2929082049298892
  0.7311674565430858  0.4701901755258783  0.6295439477547792
  0.7371260448064590  0.4691504766293476  0.9576366545817155
  0.7317768649653373  0.6738210888042219  0.2893301698692788
  0.7313208182285036  0.6602305698441776  0.6237278491996658
  0.7373534865285286  0.6604923850729365  0.9619337816534587
  0.7354925838079492  0.8749005864741625  0.2900489594900541
  0.7295931636138099  0.8568738023781827  0.6259423117501278
  0.7289192852151301  0.8585705305097647  0.9561640326038647
  0.9374403612033541  0.0723552841775944  0.2910159870738822
  0.9308257471011270  0.0619339221448854  0.6232146928927370
  0.9361415729292945  0.0651141076734314  0.9536888796582643
  0.9342545242787477  0.2709993903741744  0.2954182023422579
  0.9361034574375042  0.2654797242624562  0.6297402032789643
  0.9335156130076282  0.2659926012022372  0.9627283733621754
  0.9273883684510409  0.4653212625010522  0.2923195706762775
  0.9390686385360693  0.4671492341277889  0.6245043822260172
  0.9320199941742746  0.4624682152778477  0.9624348795488823
  0.9284018673371094  0.6578568107487995  0.2937037119426842
  0.9333553870767460  0.6635405856794974  0.6254686515168039
  0.9321063869359208  0.6632983249170336  0.9544757357290663
  0.9345765508859538  0.8645565919628742  0.2967212837063009
  0.9329243322580367  0.8610592892213987  0.6295724068790980
  0.9303558602410241  0.8630460983529766  0.9547891932792821
 
 -0.26964077E-02 -0.49345312E-02  0.14628343E-02
 -0.14653639E-03  0.23173258E-03 -0.22701858E-02
  0.17506426E-02  0.22913309E-02  0.14165716E-02
 -0.32035608E-03 -0.13533544E-02  0.72572005E-03
  0.28273757E-02  0.93969333E-03 -0.19895732E-02
  0.39537970E-02 -0.19769576E-02  0.26413658E-03
 -0.19554772E-02  0.16959955E-02 -0.24110126E-02
  0.13773139E-02 -0.10424295E-02 -0.28506474E-02
 -0.33969378E-03 -0.97446721E-03  0.44088503E-03
 -0.37790168E-04 -0.21940360E-03  0.41086738E-02
 -0.26143511E-02 -0.26394173E-02  0.30876004E-03
  0.30298014E-02  0.30631120E-02  0.25048746E-02
 -0.40214847E-02  0.57856397E-03  0.59096066E-03
 -0.62368172E-03  0.34239244E-02 -0.22929655E-02
  0.30036693E-02  0.20869081E-02  0.28654642E-02
 -0.41552595E-02 -0.12245899E-02  0.53322589E-03
  0.17503982E-02  0.11309358E-02 -0.42243858E-02
 -0.18203186E-02 -0.32155755E-02 -0.73353073E-04
 -0.30150678E-02 -0.89069605E-03 -0.13113225E-02
 -0.54350558E-03  0.28183308E-02  0.20769731E-02
  0.60417962E-02  0.50627864E-02 -0.11612737E-02
 -0.22330684E-02  0.58553697E-02  0.17877803E-02
  0.34054582E-02 -0.80273749E-03  0.37032989E-02
  0.28569190E-02 -0.43066457E-02 -0.60709519E-03
  0.10193650E-02  0.19082138E-02 -0.75676424E-03
 -0.23166646E-02 -0.83387551E-03  0.57223426E-03
  0.34804761E-03 -0.20164246E-02  0.51643592E-03
  0.19125178E-02 -0.51566138E-03 -0.35796467E-02
  0.83472803E-03 -0.86350594E-03 -0.34146879E-02
 -0.41451765E-03 -0.25822598E-02  0.10681736E-02
 -0.23838046E-02 -0.72187257E-03 -0.11039465E-03
  0.19601648E-02 -0.18272772E-02 -0.21929563E-02
 -0.67547319E-03 -0.23498154E-02 -0.20271905E-02
 -0.13763502E-02 -0.28869828E-03 -0.19731689E-02
 -0.10508497E-02 -0.65900978E-02 -0.10690471E-02
  0.47747888E-03 -0.14865788E-02 -0.20363889E-02
  0.15218886E-02  0.11692778E-02  0.75310992E-03
 -0.80216957E-04  0.58931908E-03 -0.72001530E-03
 -0.27174498E-02  0.15188411E-02 -0.77255689E-03
  0.48567485E-04 -0.39937074E-03 -0.47577140E-03
 -0.29048755E-02 -0.15817163E-04  0.13173733E-02
 -0.54242573E-02 -0.52748186E-02  0.26761620E-03
  0.32934705E-02  0.88011798E-03  0.19998493E-02
 -0.36237489E-02 -0.67497997E-02 -0.18329749E-02
 -0.25739700E-02 -0.38083699E-02  0.15285651E-02
  0.24559176E-03  0.57080084E-02 -0.24322780E-02
 -0.54354731E-03 -0.86686817E-04 -0.79754864E-03
  0.12114583E-02 -0.85970672E-03  0.18159114E-03
 -0.65587943E-03 -0.13705466E-04 -0.12260581E-02
 -0.16094251E-02  0.99819165E-03  0.23125918E-02
 -0.93853845E-03 -0.67628681E-03 -0.21435935E-02
  0.37878660E-02 -0.45854653E-04 -0.12016465E-02
  0.30952842E-02 -0.48561010E-03  0.31472999E-03
  0.29253945E-02 -0.82826495E-03 -0.12087674E-02
  0.28349731E-02  0.32198490E-03 -0.45438572E-04
  0.18389870E-02  0.19980524E-02  0.67455904E-03
 -0.54224769E-02  0.14158437E-02  0.37737603E-02
  0.13992437E-02  0.22700002E-02  0.21984418E-02
 -0.19124840E-02 -0.23723721E-03  0.63001071E-03
 -0.26913095E-02 -0.73708349E-03  0.21469554E-02
 -0.34407244E-03  0.26881844E-02 -0.65767587E-03
 -0.19559045E-02  0.27944120E-02 -0.30966151E-03
  0.28950891E-02  0.15645453E-02  0.90149240E-03
 -0.21649652E-02  0.23872945E-03  0.63486231E-02
  0.23187047E-02 -0.32859013E-02 -0.53674532E-02
  0.35705305E-02 -0.28911082E-02  0.32893447E-02
  0.20546846E-02 -0.31416645E-02 -0.44632147E-02
  0.16236249E-02  0.26915380E-03  0.43245441E-03
  0.23617507E-02 -0.37092017E-02  0.37383941E-03
 -0.26733326E-03 -0.14342323E-02  0.14884542E-02
 -0.23704465E-02  0.23080108E-02  0.78027293E-03
 -0.26510470E-02  0.21343584E-02  0.64937845E-03
  0.22674202E-02  0.13356251E-02 -0.36938653E-02
 -0.16824258E-02  0.20178628E-02  0.97913032E-03
 -0.19440804E-02  0.27130905E-02 -0.51002894E-03
  0.12764569E-02  0.17068474E-02  0.11359639E-02
  0.21058248E-02  0.26742709E-02 -0.10353045E-02
 -0.23185418E-02  0.32034828E-03 -0.16531569E-03
  0.12933308E-02  0.31370820E-02 -0.16715205E-02
  0.22840291E-02  0.54743670E-02 -0.28552667E-02
 -0.33903968E-02 -0.66435207E-02  0.30984706E-02
 -0.19485729E-02  0.30553348E-03  0.30519668E-02
  0.54824622E-03  0.13593063E-02 -0.17598037E-02
  0.30754991E-02 -0.20861535E-02 -0.17207966E-02
 -0.11409656E-02  0.26914720E-02  0.13945991E-02
  0.54166211E-03 -0.28900085E-02  0.25030628E-03
  0.41966505E-03  0.16388174E-02  0.92065120E-03
 -0.99238740E-03  0.38076147E-03  0.24660225E-02
  0.28184700E-02  0.18955392E-02  0.28313582E-02
 -0.67839147E-03  0.16907172E-02 -0.11386180E-02
 -0.49493161E-03 -0.17785873E-02  0.11322704E-02
 -0.59694431E-03  0.12812246E-04 -0.22252013E-02
 -0.17539110E-02  0.20422602E-02 -0.11319359E-02
 -0.54802623E-02 -0.17916706E-02 -0.15246137E-02
 -0.76827577E-03  0.67308682E-03 -0.28251025E-02
 -0.14053465E-02  0.35207785E-02  0.26381746E-02
 -0.40374029E-03 -0.13971716E-02 -0.26970112E-02
 -0.38557476E-02  0.24132653E-02  0.80959476E-03
 -0.66731662E-03  0.13034887E-02 -0.39409219E-02
  0.41611665E-03 -0.12077203E-02  0.23902921E-02
  0.16346476E-02  0.13232424E-02 -0.29575384E-03
 -0.27721154E-02 -0.14574025E-02 -0.38246088E-03
  0.20833894E-02 -0.37790007E-03  0.10488676E-02
  0.25015529E-02  0.31009853E-02 -0.10606596E-02
 -0.18593240E-03 -0.17646591E-02 -0.25038257E-02
  0.68875415E-03  0.42599940E-02  0.33526768E-02
  0.12002322E-02 -0.61926245E-03  0.33882032E-02
 -0.26947982E-02 -0.15604381E-02 -0.13836784E-02
 -0.20746988E-03 -0.76110009E-02 -0.20888438E-02
  0.28873574E-03 -0.32136781E-02  0.20329817E-02
 -0.12002017E-02 -0.53209586E-02  0.80212279E-02
  0.10416936E-02 -0.10479044E-02  0.11598248E-02
 -0.27225562E-02 -0.27479555E-02 -0.13375432E-02
 -0.20490692E-02 -0.33909374E-02 -0.96507540E-03
 -0.26904769E-03  0.88362177E-03 -0.31321032E-02
  0.39461704E-02  0.37873398E-02 -0.39299947E-02
  0.68120747E-03 -0.35146245E-02 -0.20607806E-03
 -0.16975079E-02  0.13963169E-02  0.31177135E-02
 -0.21560872E-02  0.19893786E-02 -0.75860264E-03
 -0.48215780E-02 -0.36908025E-02 -0.11407868E-02
  0.61916027E-03 -0.12288301E-02  0.34539760E-02
  0.22665487E-02  0.13928888E-02  0.13446992E-02
 -0.27573262E-02 -0.46526472E-02  0.10422529E-02
  0.91006906E-03  0.28108533E-02  0.27422253E-02
 -0.15924611E-02 -0.32319216E-04  0.19200663E-02
  0.26435855E-02 -0.15916509E-02  0.12960556E-02
 -0.13166123E-03 -0.33663525E-02 -0.10798027E-02
  0.10602588E-02 -0.15375699E-02 -0.16073765E-02
 -0.42294027E-03  0.33877499E-02 -0.16642788E-02
  0.23703011E-02  0.79719706E-03 -0.42685520E-03
  0.27783438E-03  0.13368420E-02 -0.61000141E-06
  0.26731226E-02  0.15828650E-02  0.39378667E-02
 -0.14179313E-02 -0.13045081E-02 -0.45783371E-03
 -0.15028175E-02 -0.21933315E-02  0.81198467E-03
  0.38491309E-02  0.27985830E-02  0.90618440E-04
 -0.14105331E-03  0.14892073E-02  0.16015805E-02
 -0.20930634E-02  0.57986931E-03  0.25584091E-02
  0.11322136E-02  0.44324824E-02 -0.28920627E-02
  0.99061040E-03  0.18927790E-02  0.47706337E-03
  0.29070158E-02  0.36556737E-03 -0.98835871E-03
  0.44892940E-02 -0.38630741E-02 -0.14435349E-02
  0.77647477E-03 -0.60137408E-03  0.10539895E-02
  0.19953883E-02  0.38693263E-02 -0.26609820E-03
 -0.32946565E-03 -0.19873819E-02 -0.58010970E-02
  0.64971135E-03  0.25756948E-02  0.29927452E-03
 -0.25887871E-02  0.31265162E-02 -0.33761728E-03
 -0.66139733E-03 -0.77693359E-03 -0.72470143E-03
  0.15166610E-02  0.40675271E-02  0.58163138E-02
  0.67514269E-03  0.20691604E-03  0.94566006E-03
 -0.13022454E-02  0.72983788E-03 -0.19118449E-03
 -0.15427814E-02  0.82151870E-02 -0.11807034E-02
 -0.18102659E-02  0.31019979E-02 -0.41655362E-02
  0.32117312E-03 -0.38069139E-02 -0.19532307E-02
  0.83206452E-02 -0.68033589E-03  0.14721891E-02
  0.44859362E-02 -0.27597424E-02 -0.25629706E-02
 -0.23585736E-03  0.13258228E-02  0.38101142E-03
 -0.18876454E-02  0.67588361E-03 -0.10134564E-02
 -0.27523504E-02  0.42864348E-03 -0.19867127E-02
  0.56325820E-02 -0.62812350E-03 -0.50713679E-02
  0.92249774E-03  0.34835604E-02  0.67202211E-03
 -0.18724914E-02  0.35794165E-02  0.55177222E-02
 -0.84514340E-03 -0.20242800E-04 -0.57477934E-03
 -0.19248696E-02  0.21039213E-02  0.10322874E-02
  0.20851741E-02  0.14666813E-02  0.71857504E-03
 -0.24003844E-02 -0.16870382E-02 -0.29034611E-02
 -0.62406810E-02 -0.16095260E-03  0.16166968E-02
  0.34031779E-03 -0.21969110E-02  0.56015339E-04
  0.21195841E-03 -0.59256395E-03 -0.35221235E-02
 -0.35738978E-04 -0.21349982E-02  0.57581937E-03
 -0.25869616E-02 -0.82367939E-03 -0.58052445E-03
  0.25072173E-02  0.39063435E-02  0.15959680E-02
  0.85730306E-03  0.33551910E-03 -0.15365817E-02
 -0.35956699E-02  0.71045749E-03 -0.27570059E-02
  0.60741730E-02 -0.53708783E-02  0.14591658E-03
 -0.20001246E-02 -0.17610559E-02  0.12820686E-02
 -0.31460101E-02 -0.20580869E-02 -0.70869929E-03
  0.11460495E-04  0.40339066E-02 -0.28337919E-02
 -0.10286752E-02  0.55318577E-02  0.29966213E-02
 -0.51393650E-03  0.37767950E-02 -0.32526444E-02
 -0.88397357E-03 -0.74607939E-03 -0.22556560E-02
  0.67626274E-02 -0.19618797E-03 -0.11389399E-02
  0.31835518E-02  0.62765810E-03  0.14553899E-02
 -0.58350522E-02 -0.55865626E-02  0.37276008E-03
 -0.30070529E-02  0.10520335E-02 -0.23108844E-02
  0.80748791E-03 -0.59046597E-02  0.23873668E-02
 -0.24181957E-02 -0.30560080E-02 -0.47495802E-03
  0.46914024E-02 -0.12377544E-02  0.72384478E-02
  0.59262561E-03 -0.46190740E-02  0.57870504E-04
 -0.23693310E-02 -0.18140887E-04  0.89171685E-03
 -0.30950101E-02 -0.36590984E-02  0.63921617E-03
 -0.14126393E-02  0.44247189E-02 -0.31018469E-02
  0.47836200E-03 -0.30959117E-02  0.23333504E-02
 -0.21759965E-02  0.60349646E-02 -0.20967899E-03
 -0.17040309E-02  0.88574599E-02  0.30905528E-02
 -0.38255935E-02 -0.86132752E-02 -0.12022540E-02
  0.10102497E-02 -0.64436597E-04  0.50579843E-02
 -0.49818877E-03  0.12301442E-02 -0.12509120E-02
 -0.24893017E-02 -0.36381396E-02  0.32707659E-02
 -0.15532339E-02 -0.44246088E-02  0.18614963E-02
 -0.26182968E-02 -0.29488791E-02 -0.11279035E-02
  0.10457439E-01 -0.24133068E-02 -0.26181876E-03
  0.47293531E-02 -0.54963791E-02 -0.21138710E-02
  0.25561337E-02 -0.62027607E-03 -0.49724367E-02
 -0.38007659E-03  0.20499679E-02  0.37381725E-02
  0.21801468E-02  0.68893335E-02 -0.90006887E-03
  0.10204036E-02  0.22126326E-02 -0.54694793E-02
 -0.29364768E-02  0.13726029E-02 -0.32631815E-02
 -0.57851787E-02 -0.21588070E-02 -0.12343355E-02
 -0.16114415E-02  0.18686138E-02  0.14591697E-02
  0.23198411E-02  0.24471033E-02 -0.20497334E-03
  0.42964595E-02 -0.37695098E-02  0.46257168E-02
  0.14550222E-02 -0.18401444E-02  0.86546245E-03
 -0.29975231E-02  0.34998386E-02  0.18309974E-03
 -0.55454206E-02  0.34631775E-02  0.62146355E-03
 -0.55568091E-02  0.96678539E-02  0.61746011E-02
  0.44128119E-02 -0.88560433E-02 -0.34430981E-02
  0.40375015E-02 -0.14832306E-02 -0.18479277E-02
 -0.15981290E-03  0.15945762E-02 -0.21795576E-02
 -0.33350411E-02 -0.24619728E-02  0.28073043E-03
  0.75502957E-03  0.36045725E-02  0.15150080E-02
 -0.26962796E-02  0.28646100E-02  0.10474767E-02
 -0.11791050E-02  0.33361424E-02 -0.10041627E-02
 -0.87927258E-03  0.84195807E-03 -0.51043149E-02
 -0.10898109E-02 -0.22718675E-02 -0.81216017E-03
  0.23981382E-02  0.24406061E-02  0.70404649E-02
  0.35450542E-02  0.52691851E-03 -0.24986015E-02
  0.25004543E-02  0.39807973E-02  0.18727722E-03
 -0.49012808E-02  0.94323536E-03  0.23652113E-02
 -0.50665880E-02  0.35053899E-02  0.17212660E-02
  0.27405939E-02  0.29257499E-02 -0.29429840E-02
 -0.13018385E-03 -0.60327123E-03  0.22096963E-02
  0.15159691E-02  0.20849225E-02 -0.15377733E-02