Ga150 N150                              
   1.00000000000000     
     8.0482965387795637  -13.9400700962268846   -0.0000003151961981
     8.0482906673966994   13.9400667053525016   -0.0000002254193136
    -0.0000005268402214    0.0000000487389220   15.7345155301750257
   Ga   N 
   150   150
Direct
  0.0669254304430876  0.1309169733090017  0.3279958156303756
  0.0632722494798183  0.1262891518505539  0.6628316173028381
  0.0728863462741120  0.1338899907618112  0.9991582730691784
  0.0628183797752911  0.3321392771187737  0.3357989449098111
  0.0741544044078560  0.3284087433741198  0.6669863076620905
  0.0710316200017805  0.3313346086405881  0.9958052121830463
  0.0622884368042266  0.5274883117229728  0.3355273713695821
  0.0631633783291427  0.5303830487384171  0.6715613906208727
  0.0725650472403812  0.5361262056351218  0.9974936369558413
  0.0723099695235145  0.7300145226450885  0.3272571854382451
  0.0699505551600848  0.7330062144861534  0.6677869144114403
  0.0529852690848292  0.7253448568243280  0.0075453405090085
  0.0815965114144949  0.9374705827392329  0.3319904529372436
  0.0659151137528308  0.9270531923554080  0.6709143961445644
  0.0686535358667127  0.9315818429856951  0.9962698884380247
  0.2722609318891068  0.1479189844731969  0.3281305877417683
  0.2673014078542463  0.1314569982899097  0.6704858316040886
  0.2713334140622908  0.1287010813867979  0.0028402313126040
  0.2614770018459573  0.3333110859589272  0.3211042410402233
  0.2651347988435021  0.3166615663736508  0.6678994847176937
  0.2658246432943578  0.3337424791167816  0.9957481295217187
  0.2631171554521034  0.5424009096145321  0.3321446657698154
  0.2591299193534418  0.5192051204089162  0.6722015293262875
  0.2713240298302542  0.5293229889154926  0.9962285912713109
  0.2747989690247671  0.7386402227116136  0.3280590549269518
  0.2647827416658773  0.7325039389938602  0.6641391915648505
  0.2625596736851356  0.7239094232203959  0.9991793653183801
  0.2757242448760849  0.9421777103371303  0.3307738747034208
  0.2653867433313319  0.9296632550376830  0.6635113220564318
  0.2691703263883098  0.9309873610509444  0.0025695026517915
  0.4714452189313767  0.1437401341423850  0.3279281835421886
  0.4706083547651994  0.1322320250677221  0.6623591174405898
  0.4754833096962335  0.1322003009051380  0.0012026713836047
  0.3160128022815502  0.4575605889270148  0.5023695716032470
  0.4671101349971820  0.3276878605469571  0.6642739636322553
  0.4648178351523427  0.3313283642814717  0.0051540927463418
  0.4562969375035907  0.5395624322411996  0.3108762637896305
  0.4699759810049599  0.5224535486708609  0.6685062501030897
  0.4626019578654924  0.5329769214283099  0.9987128555817519
  0.4534190682386166  0.7435605892771164  0.3328970887012668
  0.4746590102342404  0.7417625317396649  0.6799908592039068
  0.4662194369389163  0.7269001230405725  0.9948893806060495
  0.4720143520846140  0.9443823711671052  0.3302446550312169
  0.4624965978458285  0.9330250625519598  0.6673243911484706
  0.4604341224950884  0.9236923766363289  0.9985663783930506
  0.6640990884341592  0.1348758042560040  0.3370926234969214
  0.6671390606917822  0.1371096608227880  0.6634727971288097
  0.6705725871043587  0.1294040496059258  0.9962241697584385
  0.6622249048537021  0.3376656268286635  0.3353880891307048
  0.6736932752976011  0.3345854417427296  0.6682593537310731
  0.6703034337557201  0.3300812816281685  0.0041048319268442
  0.6605143335068361  0.5413668543201077  0.3244713004525581
  0.6611239184208816  0.5262365461692213  0.6614230170047064
  0.6614000987614304  0.5229035114778352  0.9968528879132826
  0.6911208048976797  0.7466753711846107  0.3309159457439587
  0.6738052754457202  0.7314926963805986  0.6636277238903491
  0.6638296602289432  0.7281661069717623  0.9924023431152420
  0.6647389166532403  0.9320822251794572  0.3273579399203225
  0.6685336095488297  0.9390759352205954  0.6784789310423759
  0.6776909263588887  0.9328683094102036  0.9948569468657565
  0.8671011502486303  0.1319763907017265  0.3310514605427580
  0.8688435283359563  0.1370468508628256  0.6628615612681444
  0.8658531894537407  0.1329055352880291  0.0003888472675912
  0.8606032025071260  0.3317393066973940  0.3213858390592836
  0.8766483126613969  0.3331253539098455  0.6706825714638731
  0.8712634912733860  0.3309605779548980  0.0080475111262553
  0.8596811782405834  0.5297261511655703  0.3393680395603469
  0.8627880126642506  0.5255132505109426  0.6620301149837118
  0.8560500753471642  0.5260879419767963  0.9982335546829891
  0.8827084384172340  0.7374921180570811  0.3378699337796294
  0.8582488621375541  0.7184642533661912  0.6717337613903975
  0.8545517619362031  0.7213587283247265  0.9965768619553496
  0.8844749328806457  0.9400790552697509  0.3347907809301032
  0.8610240049928324  0.9315133291344935  0.6691256795233960
  0.8742233209699606  0.9300425010640806  0.9964848742726079
  0.1343799197942381  0.0605895157793695  0.1578893485165480
  0.1355388220592200  0.0680455589340816  0.5003471971502007
  0.1326536821108122  0.0685910693550590  0.8350648738612946
  0.1295278066931401  0.2626985092839944  0.1622875139699701
  0.1318948160051570  0.2649557437143373  0.4943718676069989
  0.1278620813023378  0.2603214045887604  0.8291029242271397
  0.1322893605415149  0.4616016918855317  0.1631337111029315
  0.1257947341663809  0.4590429702664601  0.4993203529702998
  0.1347752747220753  0.4675961463319055  0.8316715044982687
  0.1317252973731829  0.6582602111910392  0.1706683155118192
  0.1245159119691264  0.6606544010577673  0.5019316140684073
  0.1330106051542950  0.6692219686726615  0.8346070615968257
  0.1352648522431370  0.8658073023095194  0.1624127387433709
  0.1430701160554414  0.8719843020194160  0.5030028326117347
  0.1395497275845422  0.8654445315262275  0.8473732951919695
  0.3395664014014507  0.0728517295588010  0.1672683683923865
  0.3377419945090880  0.0687707199840415  0.4979346165534671
  0.3396319572595404  0.0693705603091520  0.8294696080091956
  0.3422529476643924  0.2773598132292092  0.1691157039797653
  0.3329379090317492  0.2650684344084817  0.4860131562524947
  0.3398870645459874  0.2681436983950904  0.8389696480217945
  0.3304964660094420  0.4682191400983619  0.1529745802169245
  0.4366660006547425  0.6279881114199388  0.5551068599294559
  0.3374643310982587  0.4631451526911994  0.8291039717733152
  0.3415630659526070  0.6721890098876918  0.1553940343557994
  0.3140088769105461  0.6529411775328086  0.4920004455294876
  0.3298585970897522  0.6591719051048976  0.8378274714631044
  0.3274395599629883  0.8642440508383068  0.1650411564227956
  0.3340318144358113  0.8656514648701334  0.4964826741230643
  0.3325611662373307  0.8621803217053535  0.8305335098924367
  0.5357438687820414  0.0591002363435508  0.1713697772039970
  0.5349112546471813  0.0613578510828947  0.4968776953613837
  0.5325956433976711  0.0611236519080689  0.8309202252842263
  0.5321202644220340  0.2651952824123537  0.1680132732467196
  0.5246909716569224  0.2628344602027288  0.4891781868580150
  0.5411215125021632  0.2659680399690426  0.8336331288179358
  0.5312983633727721  0.4692169927003551  0.1724816760973314
  0.5220558055656167  0.4628376276087743  0.4768512725546304
  0.5204889540851160  0.4568080425809610  0.8409953118769133
  0.5384829626376954  0.6752261011243722  0.1665135143039781
  0.5433835329611205  0.6736698776096087  0.4244123302004210
  0.5367046941309188  0.6661166641018872  0.8259145816605441
  0.5396126430800749  0.8702623782946155  0.1606193517179626
  0.5330222364971373  0.8639716121440727  0.5023132736134260
  0.5280489583532882  0.8609942162342062  0.8410371880332055
  0.7302170913216028  0.0709479247677862  0.1635024684461553
  0.7308792575760992  0.0553904861265887  0.5003672841894053
  0.7304765811188028  0.0661367215769323  0.8307243753392507
  0.7281499818532752  0.2674099746499493  0.1697906663606928
  0.7380656743440689  0.2662724135656522  0.5027350340595153
  0.7367857282124899  0.2691717048855684  0.8360659741113537
  0.7273148192113140  0.4643121926241400  0.1704269029762863
  0.7194011675267888  0.4575795230060418  0.4906645926084935
  0.7357325415582004  0.4722835316319432  0.8246310902351199
  0.7359488769037641  0.6686685927258671  0.1603153049811810
  0.7264171885510394  0.6589150266010699  0.4983317092132361
  0.7231418654590542  0.6508024906572040  0.8297946312732767
  0.7457941559763852  0.8744177325478811  0.1629230847192731
  0.7329708377707830  0.8596931352315109  0.4998437166917458
  0.7352170671681532  0.8596347406668284  0.8298077614814685
  0.9336072486196919  0.0635237010131533  0.1619665033371902
  0.9349396046671224  0.0663126961790271  0.4983868436037025
  0.9325779767085782  0.0690454172221398  0.8334684571837601
  0.9370870372901781  0.2627427768517200  0.1705879031884200
  0.9287070506276350  0.2623828786854951  0.5021748306818280
  0.9365249671019779  0.2644446391313046  0.8376420089360873
  0.9269385033392166  0.4632672577815067  0.1614299962029742
  0.9280116551946974  0.4594596494791304  0.5029559938486946
  0.9368083278380935  0.4675311115404361  0.8438889649077966
  0.9286732474552134  0.6638270808026480  0.1664981236370096
  0.9419888167393766  0.6669900896301912  0.5024594491290936
  0.9295922585210473  0.6620885251617490  0.8321197073667541
  0.9374467596726788  0.8611947488525961  0.1674107471550860
  0.9394501103634714  0.8585082712625131  0.5093859470231681
  0.9362551076158363  0.8622798847228109  0.8260073547037000
  0.0667109367510861  0.1325502777314050  0.1226645957077147
  0.0656552115702928  0.1333091547770095  0.4568586290714346
  0.0651658947799405  0.1323677208908897  0.7882788076014756
  0.0656022054896204  0.3284312148061548  0.1243697730516649
  0.0597477116706258  0.3301919265151972  0.4614348148040008
  0.0662646175087445  0.3335323924015605  0.7906697939794260
  0.0639691342921196  0.5285088442287534  0.1248492817083631
  0.0587839294862521  0.5278098426214920  0.4597099175181883
  0.0684642316316596  0.5324841094358218  0.7964643391224810
  0.0648740743240878  0.7274440407892020  0.1303099696407240
  0.0761232383427838  0.7376066448213366  0.4573548298767515
  0.0643824180478738  0.7306505010516857  0.7924661546738639
  0.0688435426265893  0.9297350037472145  0.1216993015295016
  0.0710000699843982  0.9315194598539188  0.4580132809101969
  0.0735494004584737  0.9328904303768830  0.7951916243363739
  0.2722406571189628  0.1364968502617543  0.1246340450645352
  0.2675313699747606  0.1298795083468917  0.4510872404667466
  0.2683754771656288  0.1353555584098448  0.7975596771083509
  0.2627044769081166  0.3318686510077263  0.1241922452787693
  0.2618122614029950  0.3320588313944716  0.4521454923196531
  0.2639432906190970  0.3280335256308781  0.7932355337213121
  0.2661236634351860  0.5334633396688739  0.1211223854949178
  0.2496641223674653  0.5216863790968398  0.4573275749224386
  0.2687881293029220  0.5302685626196093  0.7914873604493704
  0.2649127827401351  0.7317891082996549  0.1245296230148205
  0.2647678305083698  0.7318430252141184  0.4566648166250434
  0.2669229017130440  0.7263203318204605  0.7881007844398441
  0.2709759407179265  0.9390874011391841  0.1234541854823308
  0.2716557120761963  0.9326632981616372  0.4560954330868416
  0.2682586297316347  0.9321444798430504  0.7898906960473316
  0.4753795707550473  0.1332616316057178  0.1255444719728968
  0.4684558066653555  0.1292893714291007  0.4539880203656689
  0.4713726088567327  0.1318098965923939  0.7902095263391230
  0.4736242599117858  0.3386465992570540  0.1259293453958303
  0.4652671431916445  0.3288927622163441  0.4417843388268121
  0.4667277899502678  0.3304550801796985  0.7893205683655563
  0.4687112683264018  0.5419280879041591  0.1267056955584674
  0.4647230121800673  0.5468388401882037  0.4692665407149541
  0.4678457009747600  0.5323172577712262  0.7931669828830354
  0.4743410749969513  0.7385572368985523  0.1200318297010305
  0.4593169229513626  0.7234595600275435  0.4588427565533544
  0.4654208613469916  0.7322828460904377  0.7982621025576071
  0.4607391931925571  0.9293257480291485  0.1287446215217280
  0.4679987077146995  0.9279831836525325  0.4592617707863422
  0.4626451255290931  0.9261510814591453  0.7880913851428308
  0.6647840391258806  0.1336791830631361  0.1216202579330446
  0.6677671951504320  0.1273320439456913  0.4603441837355264
  0.6651181519461743  0.1337220572001055  0.7879115290500629
  0.6675173442826173  0.3352923641288403  0.1258219989613974
  0.6625777063861548  0.3241915185921023  0.4608126361781417
  0.6728681258211578  0.3332313530527642  0.7940615825722934
  0.6589644730873563  0.5318219122350218  0.1246814405629185
  0.6587836534600298  0.5333090756143470  0.4517290384700785
  0.6552444525292750  0.5211649672897484  0.7907263562647087
  0.6684463374491001  0.7360405071687069  0.1207936456922310
  0.6741649998490344  0.7331894173000375  0.4562897755653612
  0.6682852641921961  0.7282559776041417  0.7893572648774885
  0.6736643474454487  0.9379802073017496  0.1212652045338125
  0.6623111883220493  0.9239543058038362  0.4549740643344440
  0.6654752938665385  0.9311385316287917  0.7997700097489654
  0.8657182419828264  0.1306882866011519  0.1273766930487978
  0.8634326546877773  0.1313568177640722  0.4565922752184051
  0.8680018158914360  0.1377596274354060  0.7902383826079977
  0.8660067487138640  0.3292284112967858  0.1307155077275605
  0.8669871206092338  0.3319392892482311  0.4545522448889046
  0.8706170433420886  0.3347928994451952  0.7970374404129174
  0.8614188371916059  0.5293385574272081  0.1235188872039213
  0.8636154763300700  0.5288434748809310  0.4645842828210091
  0.8671098936301563  0.5287497059927833  0.7876110086602656
  0.8647124403795656  0.7282736017240464  0.1173871813819697
  0.8715584222347809  0.7294046240117371  0.4615497363805205
  0.8600692815732787  0.7235851306640073  0.7945523467662805
  0.8745052474582701  0.9315817759133415  0.1226815648492602
  0.8706507962759266  0.9298966391695831  0.4622007239899363
  0.8692789676522800  0.9328424515193733  0.7910583023301426
  0.1352456627402342  0.0626173634956287  0.2882101249514962
  0.1355203730954618  0.0616035700787338  0.6262564659294939
  0.1387834068853306  0.0652399367625586  0.9626417710339285
  0.1271543723852781  0.2636713401542417  0.2880609115525304
  0.1312492325541240  0.2556618339294647  0.6241049025545680
  0.1366195412469954  0.2651502257037601  0.9499139921460048
  0.1321635029673114  0.4658854125767085  0.2896653296557873
  0.1293147348360024  0.4615493164073239  0.6262227110257440
  0.1372961727124825  0.4650881608370632  0.9566202638166097
  0.1359168222795499  0.6594714453636745  0.2947740632097618
  0.1321467221933117  0.6620226534119332  0.6282558955796672
  0.1263384669896411  0.6673050178876813  0.9574470742181425
  0.1408110839999993  0.8636612101920488  0.2874045111588326
  0.1326248673810265  0.8608696115104432  0.6234788873227440
  0.1324965346142188  0.8584823205830973  0.9681226691133192
  0.3366552397798961  0.0707456657055390  0.2920199797698032
  0.3350909279291036  0.0651085426598656  0.6230197192054043
  0.3410431372702959  0.0645116558916506  0.9554701259356280
  0.3198142394159599  0.2703161566501793  0.2835211214043213
  0.3357549026410950  0.2625038622703087  0.6143087281070063
  0.3346542504151012  0.2654472921174143  0.9632661501042196
  0.3251690395666578  0.4713910246589086  0.2918490152055776
  0.3291918267956346  0.4584242268034964  0.6312387813306585
  0.3345389984895005  0.4635771666697195  0.9568701739917943
  0.3342573944038438  0.6667512309614005  0.2847795461670162
  0.3389544308212034  0.6612702522635708  0.6190324028214160
  0.3324835985893579  0.6655167894984040  0.9634356367361679
  0.3376076990941147  0.8727030457580579  0.2893744081113293
  0.3324458052750212  0.8641152801122343  0.6209859242147304
  0.3265160015769928  0.8549582417138281  0.9594777904619273
  0.5358293302172028  0.0733593436362684  0.2913518147261048
  0.5353622641159272  0.0643414234864223  0.6264080668628434
  0.5305747591890143  0.0564520193161672  0.9560230356273083
  0.5376508858652449  0.2711471338852243  0.2853795826339860
  0.5418326276277016  0.2656064560367809  0.6281628517899750
  0.5368838459614581  0.2682664349801727  0.9630160133760228
  0.5277051900171339  0.4773543690666056  0.2896398776999458
  0.5299933420656391  0.4586620580676369  0.6133144619171178
  0.5231144083903297  0.4614991077281922  0.9635111190635611
  0.5369743360512746  0.6874492916507422  0.2973666738733151
  0.5298249697832855  0.6587651968497978  0.6445550027531366
  0.5325652063243218  0.6609492446910730  0.9509696096866578
  0.5316130643369161  0.8730246677051998  0.2896141047723494
  0.5365516506130624  0.8708959225049216  0.6311435957380604
  0.5379814621129229  0.8642692243682581  0.9627842030489565
  0.7315448847805934  0.0697650521511465  0.2880851093386917
  0.7319218748889864  0.0658999132326142  0.6259638807481256
  0.7381218302458310  0.0651828972210581  0.9561495426000588
  0.7262804660358895  0.2680863098312253  0.2928467348067064
  0.7424269532008662  0.2701662036740793  0.6271972640603205
  0.7371395867454852  0.2639796562010934  0.9631195613804024
  0.7293171775472089  0.4692001548680363  0.2946474373225842
  0.7310016256123743  0.4650696179716272  0.6204247290250882
  0.7265706333696248  0.4592992263921870  0.9536972892530737
  0.7444485109063972  0.6732566416749787  0.2847406254884479
  0.7292171656822678  0.6597628103960673  0.6221664158398336
  0.7248786260133249  0.6569885617009175  0.9574188895484519
  0.7452095986449608  0.8765122438674059  0.2903422497740900
  0.7270459040050038  0.8633855427715224  0.6253673977422293
  0.7381849922131050  0.8624315361454795  0.9537855866971349
  0.9376420941809441  0.0698776684430512  0.2892943179027888
  0.9291746003522950  0.0640686652437118  0.6231820334443143
  0.9359025359802350  0.0652909553975289  0.9586245701782771
  0.9337179362984402  0.2680193240594549  0.2947305311850155
  0.9414970292124106  0.2690421854739445  0.6279501970315676
  0.9356375930351135  0.2655007027214494  0.9611680856757601
  0.9295337960651511  0.4699407499964292  0.2881945877823658
  0.9355043866691732  0.4637373898107685  0.6268172208032027
  0.9370408569707483  0.4674431232854001  0.9682263684418929
  0.9369702354071374  0.6654909499601588  0.2908197724672521
  0.9370313568479832  0.6619863060767505  0.6283324002263212
  0.9262687433424559  0.6602335474993752  0.9553677637824403
  0.9459131549891110  0.8690121003935565  0.2903384708307993
  0.9300375296895105  0.8604170926047982  0.6344077350890092
  0.9341011323792153  0.8596938189283190  0.9550041331912329
 
  0.17834201E-02 -0.22482486E-02 -0.55011097E-03
 -0.12864456E-03  0.77815302E-03 -0.35254423E-02
 -0.12023999E-02  0.50739967E-02 -0.16401847E-03
 -0.21126042E-02 -0.13148927E-02 -0.20099120E-02
  0.92424278E-03  0.36477834E-02 -0.26864180E-02
  0.75673306E-03  0.34639120E-03 -0.19263755E-02
 -0.28164762E-02  0.38693919E-02  0.15555736E-02
  0.65367184E-03 -0.23846170E-02 -0.78524270E-03
 -0.13301595E-02 -0.15603601E-02 -0.17656094E-02
  0.51232725E-03  0.55906178E-03  0.34344672E-02
  0.18242448E-02  0.19807653E-02  0.70202466E-03
 -0.16748453E-03  0.10234779E-02  0.23008212E-02
  0.33157217E-02  0.23144060E-02  0.20481397E-02
 -0.86874948E-03  0.20201887E-02 -0.27528697E-02
  0.25557236E-02  0.12338834E-02  0.22827207E-02
  0.25823569E-02 -0.76273714E-03  0.16130407E-02
  0.78275910E-03  0.66199864E-03 -0.87146861E-03
 -0.36686268E-02  0.11379750E-02  0.13395905E-02
  0.14889916E-02 -0.35995467E-02 -0.14355769E-02
  0.37484671E-02  0.10186729E-02  0.19438409E-02
  0.23691533E-02  0.23052967E-02  0.20870224E-03
 -0.11439269E-02  0.25453541E-02 -0.45049845E-02
 -0.20532682E-02 -0.23117652E-02  0.20080889E-02
  0.24679582E-02 -0.56441841E-02  0.40976232E-03
  0.14813552E-02  0.22639468E-02 -0.67592554E-03
  0.20794517E-02  0.21484431E-02  0.57269723E-03
 -0.13997626E-02 -0.32207100E-03 -0.33413168E-02
 -0.13578543E-02  0.74467127E-03  0.81610976E-03
  0.17482378E-02  0.24842890E-03 -0.12651178E-02
  0.78884814E-03 -0.22291504E-02  0.94423776E-03
 -0.10781948E-02 -0.22392876E-03  0.12092701E-02
 -0.95142837E-03 -0.14782174E-02 -0.13234294E-02
 -0.27791261E-02 -0.51117922E-02  0.12507815E-02
  0.41001765E-02  0.42256346E-02 -0.21416213E-02
 -0.30033547E-02 -0.16626437E-02 -0.20374613E-02
 -0.16176162E-02 -0.24505536E-03 -0.13449677E-02
  0.24072334E-02  0.17351193E-02 -0.33554806E-02
 -0.29460873E-02 -0.30035020E-02  0.18994109E-02
 -0.39170338E-02  0.10392454E-02  0.40365702E-02
  0.36807122E-03 -0.16539001E-03 -0.13986326E-02
 -0.90565447E-03 -0.28285559E-02  0.69534209E-02
 -0.13574119E-03 -0.52157659E-02 -0.68234557E-03
  0.23776331E-02  0.35235215E-02  0.89340477E-04
 -0.59640557E-03 -0.41105984E-02 -0.31099020E-02
  0.15244931E-02 -0.17755310E-03 -0.17566357E-02
  0.20198701E-02  0.79728487E-03  0.23155809E-02
 -0.12842805E-02 -0.40629729E-02 -0.73767985E-03
  0.10588117E-02  0.67320425E-03  0.29034413E-02
 -0.18219606E-03  0.16076748E-03  0.36397555E-03
  0.18809381E-02 -0.23230671E-02  0.54564613E-03
  0.67785725E-03 -0.66272620E-04 -0.10863754E-03
 -0.23363674E-02 -0.63389541E-03 -0.41604140E-02
 -0.61905258E-03 -0.56986525E-03  0.24053033E-02
 -0.19968175E-02 -0.26232090E-02 -0.48736200E-03
  0.22670283E-02 -0.46202936E-04  0.19671353E-02
  0.10153924E-04  0.60730360E-03 -0.54575347E-04
 -0.15639376E-02  0.54408244E-03  0.27834972E-02
  0.36490287E-03 -0.11528122E-02 -0.14556126E-02
 -0.53913456E-03  0.77674691E-03 -0.56371730E-03
 -0.41377921E-02 -0.28014644E-02  0.21081485E-04
 -0.81248260E-04 -0.20597372E-02  0.53565977E-03
 -0.21465811E-02 -0.11468289E-03 -0.22515802E-02
  0.12889436E-03  0.18910368E-02  0.70525249E-03
  0.28709450E-03  0.18879401E-03  0.28423579E-02
  0.92485536E-04 -0.54453045E-02 -0.37286351E-02
 -0.92114137E-03  0.74483783E-03  0.11974785E-02
  0.24828397E-02  0.23316554E-02 -0.14252910E-02
  0.11363307E-02  0.11397468E-02 -0.15262507E-03
  0.39404645E-02 -0.14920526E-02  0.17829363E-02
 -0.47871733E-02  0.36235088E-02  0.38922395E-03
 -0.40607647E-02  0.29757789E-02 -0.33175392E-02
  0.12574215E-02 -0.14260567E-02 -0.13191151E-02
  0.11915652E-02  0.20905706E-02  0.75702312E-03
 -0.20435004E-02  0.16343483E-02  0.59171952E-03
 -0.82282864E-03 -0.55642809E-02 -0.13635438E-02
 -0.19479566E-02  0.24092911E-02  0.22428650E-02
 -0.19515959E-02  0.43464087E-02  0.50894919E-03
  0.26905116E-02  0.19851740E-02  0.15672479E-02
  0.23058779E-02  0.13198630E-02  0.22430150E-02
 -0.20225462E-03 -0.13942449E-02  0.19560217E-03
 -0.15903114E-02  0.74101803E-03 -0.20396504E-02
  0.69278679E-03 -0.31804416E-03  0.19582290E-02
 -0.48854695E-03 -0.24908418E-03  0.18207897E-02
  0.29135426E-02 -0.25318958E-02 -0.27815869E-02
  0.79396327E-03 -0.13861682E-02  0.14098190E-02
  0.25514386E-02 -0.23917596E-02  0.56521217E-03
 -0.84813544E-03 -0.43309731E-03 -0.16974578E-02
 -0.10221418E-02 -0.17527581E-02  0.38801665E-03
  0.25991402E-03  0.24862504E-02 -0.75662630E-03
  0.19321888E-02 -0.28152621E-04 -0.85343719E-03
  0.42655629E-03  0.21230871E-02  0.15897044E-02
  0.12398791E-02  0.37565458E-02  0.35351500E-03
 -0.99761986E-03  0.36450744E-02  0.83286080E-03
 -0.52029542E-03 -0.13471052E-02  0.11081840E-02
 -0.17641175E-02 -0.13671761E-02  0.22185471E-02
  0.14610788E-02  0.17641276E-02 -0.40002832E-02
 -0.56464145E-03 -0.28920560E-02 -0.41993947E-02
  0.27128743E-02  0.17641825E-02  0.70896651E-04
 -0.28831024E-02 -0.26585106E-03 -0.19373220E-02
 -0.14279511E-02 -0.35761839E-03 -0.35578712E-03
 -0.33020858E-02 -0.82510442E-03 -0.69024863E-03
  0.45129398E-03  0.13024050E-02 -0.23527144E-02
 -0.28424951E-03  0.39292712E-03  0.10174939E-02
 -0.19690435E-02 -0.14835523E-02 -0.18929326E-02
 -0.29530051E-03  0.52095256E-05 -0.16281506E-02
  0.44434073E-03  0.33868971E-02 -0.21551444E-02
 -0.94435242E-03 -0.59931497E-03  0.13639215E-02
 -0.61538712E-03  0.32347698E-03 -0.26473781E-02
  0.21748820E-02 -0.40692099E-02 -0.22805242E-03
 -0.42343947E-02 -0.26067605E-02  0.24290308E-02
  0.46332040E-03 -0.79588765E-03 -0.10811053E-02
 -0.29920386E-02  0.13661634E-02 -0.12756002E-02
 -0.18182457E-02 -0.15799770E-02 -0.84906590E-03
 -0.59996068E-02 -0.38833250E-02  0.20201282E-02
  0.10612250E-02 -0.24253400E-02 -0.50506023E-02
 -0.10821636E-02  0.41169896E-03  0.11583688E-02
 -0.84551072E-03  0.44219362E-04 -0.14111908E-02
 -0.10620766E-02 -0.77332211E-03 -0.63153436E-03
 -0.20780058E-02 -0.14648659E-02  0.48392590E-03
 -0.22840179E-02 -0.25166658E-02  0.42063532E-04
  0.20330841E-03  0.30263995E-02  0.28906211E-02
 -0.67012417E-03 -0.55894966E-03 -0.27362552E-02
 -0.34056268E-02  0.21832955E-03  0.32372951E-02
  0.10378492E-02  0.49138180E-02  0.25434770E-02
 -0.19685470E-02  0.17558219E-02 -0.19628193E-02
  0.82093860E-03  0.99827488E-03 -0.18242858E-03
  0.34551372E-02  0.55381447E-03  0.57040670E-04
  0.26023644E-02  0.34016054E-02  0.81426121E-03
 -0.88698512E-03  0.17274764E-02 -0.34775289E-03
  0.21914812E-02 -0.75929798E-03  0.12125468E-03
  0.50256782E-03  0.98358015E-03 -0.62258242E-03
  0.65852852E-03 -0.15388504E-03 -0.10640269E-02
 -0.16666489E-02 -0.16022111E-02  0.82099745E-03
 -0.20409347E-02  0.31452267E-02  0.79663392E-03
  0.18659560E-02 -0.12759369E-02  0.14009107E-02
  0.20747993E-02  0.13994936E-02 -0.10129096E-02
 -0.14330408E-02  0.32133794E-02  0.28730768E-02
 -0.12330710E-02  0.15517662E-02 -0.40712820E-02
 -0.18455498E-03 -0.24622272E-03  0.89118275E-03
  0.23858977E-02 -0.57843178E-03  0.21045087E-02
  0.33138325E-02 -0.27267269E-02 -0.29075270E-02
  0.37164906E-02 -0.10071309E-02  0.20469173E-02
 -0.51260765E-03  0.33878192E-02 -0.45816272E-03
  0.54931289E-03 -0.19482573E-02 -0.15985200E-02
  0.29532357E-02  0.13902199E-02 -0.41681349E-03
  0.55525685E-03  0.34442457E-02 -0.84739382E-03
  0.18004122E-02  0.20480990E-02  0.78418936E-03
 -0.58719799E-03  0.11315480E-02  0.30131302E-02
 -0.13767995E-02  0.22513034E-02 -0.28727745E-02
  0.38148366E-03 -0.27085876E-02 -0.20796121E-02
  0.22025094E-02  0.57759795E-02  0.33611806E-02
  0.22303170E-02  0.38839095E-02 -0.77571663E-05
 -0.10595015E-02 -0.24611623E-02 -0.15569131E-02
 -0.24692333E-02  0.20165139E-03  0.22810762E-02
 -0.80789704E-02  0.90147426E-03 -0.20304333E-02
  0.13627354E-02  0.15550172E-02 -0.20586352E-02
  0.19485835E-03 -0.28884164E-02 -0.30963019E-03
  0.39440127E-04 -0.54098407E-03  0.12827359E-02
 -0.10408995E-03 -0.19107051E-02 -0.16723743E-02
  0.15579477E-02 -0.25912617E-02  0.15568424E-02
 -0.59406907E-03  0.87000770E-03  0.32222343E-02
  0.27032467E-02  0.65438791E-03 -0.49293978E-03
 -0.26701648E-02 -0.16803034E-02 -0.28351972E-03
 -0.10441603E-02  0.58740150E-03  0.21771230E-02
  0.29209105E-02 -0.32784637E-02 -0.24819140E-02
 -0.38818367E-02  0.15420415E-02  0.28874103E-03
 -0.73481748E-02 -0.31988258E-02 -0.16124610E-02
  0.21143152E-02  0.30758007E-02 -0.40682121E-03
 -0.29863264E-02 -0.52963695E-02  0.82029802E-03
 -0.39613337E-02  0.26921518E-02  0.86751674E-02
  0.11030321E-02 -0.20182261E-02  0.35350788E-02
  0.18074162E-03 -0.12554525E-02 -0.22006094E-02
  0.46051150E-02 -0.33122301E-03  0.53276952E-02
  0.56688309E-02 -0.12917803E-02  0.39713015E-02
  0.51693053E-02  0.89151541E-03 -0.12639634E-02
  0.51983244E-02 -0.18493505E-02 -0.15556306E-02
  0.35661356E-02 -0.15088660E-02  0.20154839E-02
  0.16984349E-02  0.24210174E-02  0.23267965E-02
  0.44200932E-02  0.63507855E-02 -0.25727161E-02
  0.31728358E-02 -0.32913175E-02  0.12679774E-02
 -0.26227494E-02  0.61399706E-03 -0.10696994E-02
  0.52738759E-02 -0.39561964E-02  0.31597308E-03
  0.31219619E-02 -0.43059393E-02  0.16527219E-02
 -0.23658047E-02 -0.64870900E-03 -0.31780537E-02
 -0.87580759E-02 -0.13545162E-01 -0.21228235E-02
 -0.93448094E-03 -0.52320620E-02  0.40779735E-03
  0.77567786E-04  0.86351084E-03 -0.67692261E-02
  0.54075771E-02  0.50411512E-02  0.54990898E-02
 -0.49752056E-02 -0.11039484E-01  0.20271284E-02
 -0.20949455E-02 -0.19103437E-02 -0.13054486E-01
 -0.22317486E-02 -0.36335466E-02  0.35795514E-02
  0.29268494E-03  0.10248045E-02  0.20730589E-02
  0.21695433E-02  0.24115123E-02  0.18348336E-02
  0.64855360E-02 -0.35005797E-02  0.94637891E-02
  0.40557150E-02 -0.19529519E-02 -0.14569698E-02
  0.38065107E-02  0.24723084E-02  0.13682190E-02
 -0.20697212E-02  0.96607847E-02 -0.26958711E-02
 -0.31926482E-04 -0.39317207E-02  0.46582726E-02
 -0.13735484E-02  0.22340290E-02 -0.66115422E-03
  0.50442263E-02  0.30979279E-02 -0.37603513E-02
  0.60692105E-02  0.23937357E-02  0.34196948E-03
 -0.21340826E-02  0.86914779E-03  0.72022895E-02
  0.69778498E-02  0.44452291E-03 -0.36762794E-03
  0.99808532E-03 -0.24724957E-02  0.54960558E-02
  0.27929119E-02  0.49337208E-03 -0.18260078E-02
 -0.75085008E-03  0.73330946E-02  0.37618699E-02
  0.56506436E-02 -0.30698114E-02  0.40109954E-02
  0.27107982E-02 -0.22833385E-02  0.60397728E-02
  0.37419047E-03  0.34295650E-02  0.25548280E-02
 -0.22951809E-03  0.10140943E-02  0.22606011E-02
 -0.20664934E-03  0.11388232E-02  0.38908628E-03
  0.90219360E-03  0.15331536E-02  0.26120622E-03
 -0.29634970E-02  0.44367675E-02  0.17275016E-02
 -0.18417517E-02  0.23412136E-02  0.36893308E-02
 -0.68866268E-03 -0.37836317E-04  0.32173464E-03
  0.22933406E-02  0.50363205E-02 -0.12428103E-02
  0.49801012E-02 -0.34931093E-02 -0.11893047E-04
  0.31888318E-02  0.41261469E-02  0.19099956E-03
  0.13417651E-02  0.22516373E-02 -0.33158258E-02
  0.47179146E-02  0.13200831E-02  0.16558211E-02
 -0.34450005E-02  0.25118344E-02  0.49336845E-03
  0.88099374E-03 -0.28590094E-02 -0.15178176E-03
  0.38228964E-02  0.17100245E-02 -0.41690317E-03
 -0.39077103E-02 -0.48912818E-02  0.48252468E-03
  0.67491537E-03 -0.30849512E-02  0.16449178E-02
  0.41660948E-02  0.32746158E-02 -0.54479150E-02
  0.68962281E-03  0.18218798E-02 -0.10591649E-02
 -0.32884212E-02  0.26734210E-02 -0.16489436E-02
  0.30969426E-02 -0.45481441E-02 -0.68716832E-03
  0.31476466E-02 -0.19554439E-02 -0.18939585E-02
  0.98321279E-03 -0.18828956E-02  0.19905669E-02
 -0.14160829E-02  0.43088405E-02  0.55963782E-02