Ga150 N150                              
   1.00000000000000     
     8.0482965387795637  -13.9400700962268846   -0.0000003151961981
     8.0482906673966994   13.9400667053525016   -0.0000002254193136
    -0.0000005268402214    0.0000000487389220   15.7345155301750257
   Ga   N 
   150   150
Direct
  0.0706734150492653  0.1346155592533533  0.3297212473924082
  0.0699604005323716  0.1352537760903785  0.6601111674920550
  0.0666285556544695  0.1312413342383235  0.9970724577028465
  0.0634936881876107  0.3346695101816634  0.3405712782014654
  0.0714169558614270  0.3290599143032155  0.6640752604577299
  0.0681594471559392  0.3284552759264067  0.0003414046527553
  0.0590029948538896  0.5296493737820142  0.3379526692760774
  0.0652860094800043  0.5312241239345563  0.6717057607049247
  0.0713451922529655  0.5361657490135467  0.9993752826999079
  0.0700707070789108  0.7275093488084420  0.3200579037889091
  0.0738466790617482  0.7328015392177807  0.6621188386305523
  0.0530024926360184  0.7232254915846926  0.0027390708959312
  0.0763955662654382  0.9344298342440810  0.3384788237136397
  0.0623931816444991  0.9293446306144247  0.6695295121024772
  0.0661571050691137  0.9280822814528861  0.9965873381759189
  0.2746259606719886  0.1463715255683457  0.3361195413649982
  0.2665173474999086  0.1319929030753047  0.6711439923069338
  0.2672097574865023  0.1242949300570774  0.9974793926065034
  0.2635197704488770  0.3282694205709896  0.3151151460790463
  0.2685137428754659  0.3222859278664333  0.6656082809625049
  0.2667682856868034  0.3305093326753467  0.9953264022332101
  0.2631687210620289  0.5414457435328257  0.3280936975442386
  0.2525129002212300  0.5070256522727893  0.6803401301169970
  0.2715363119369501  0.5280840497197928  0.0000850991364332
  0.2721612255889603  0.7397282404100388  0.3261684994402883
  0.2658889975270050  0.7265644018711128  0.6653679503804867
  0.2631761199431210  0.7228172300463268  0.9993285426669323
  0.2749398952786403  0.9375686192220467  0.3301164731856976
  0.2669774086899588  0.9269510985933420  0.6650341003205477
  0.2638588807119515  0.9280910060760538  0.0035092325252773
  0.4699688941506407  0.1453875117266094  0.3264390178569843
  0.4683845183854390  0.1342571326268311  0.6589217107337485
  0.4735672037090244  0.1336515918208049  0.9983561391079062
  0.3210000133561791  0.4623349943511760  0.4488686586671905
  0.4666802612720219  0.3281071453921645  0.6560113383921602
  0.4637716747096254  0.3282210218331713  0.0050539078056217
  0.4688301859862021  0.5541741200804792  0.3201401954680264
  0.4713368970252241  0.5151137265958258  0.6804023774148787
  0.4611870674724604  0.5283888839249741  0.0028140047071347
  0.4665182268718746  0.7443637548371267  0.3360644095983636
  0.4763361892438120  0.7404764346344027  0.6680674599867994
  0.4674890557972362  0.7285277967019200  0.9939831950740329
  0.4688996834970501  0.9438358045791937  0.3257633194006357
  0.4612540882422635  0.9288114795015836  0.6660214524898236
  0.4651764802266588  0.9263033781034307  0.9960586769875405
  0.6644659387058359  0.1315094285353650  0.3315863486525050
  0.6655949611871580  0.1351051982186545  0.6592886370637990
  0.6703355049384971  0.1310231831270822  0.9977754905989686
  0.6627042118389475  0.3395525161400859  0.3370453663646427
  0.6723637690948169  0.3351287397633572  0.6648006562214208
  0.6684734480442438  0.3322306319663645  0.9979915355333658
  0.6628674840394441  0.5380089655574957  0.3269268424324093
  0.6635809799118610  0.5202785753082394  0.6628704701851228
  0.6612347096469895  0.5222575340097421  0.0014867229732649
  0.6746715227967722  0.7417562361621716  0.3319120622115779
  0.6709834982669826  0.7234932553217494  0.6655768250762467
  0.6634165567519310  0.7228052257746780  0.9913029275310017
  0.6682950695431591  0.9362105400994549  0.3221311645655051
  0.6706811662824121  0.9375941358062065  0.6743967470460743
  0.6724848583440209  0.9285093344286800  0.9943197442911721
  0.8670766359355121  0.1319612021672775  0.3328488614989884
  0.8659919314993108  0.1337952536837807  0.6644389495150484
  0.8644336583660618  0.1289624272082941  0.9961044116687437
  0.8596494623344637  0.3302409494543348  0.3222902472650921
  0.8735904221027788  0.3335405527679705  0.6696321799680934
  0.8687359847903586  0.3276760566110022  0.0095159107045804
  0.8603645877280863  0.5285175882669881  0.3372495446611440
  0.8660776117161584  0.5299480755418814  0.6613839688766953
  0.8574257599340128  0.5258274947286554  0.9999083499716217
  0.8742721102686564  0.7369401445970967  0.3348725380859232
  0.8584841580880085  0.7217302361430206  0.6620451562754456
  0.8525985885725121  0.7194503407519532  0.9952145656782290
  0.8771746148344158  0.9381502491029078  0.3335203160737662
  0.8615142974466902  0.9326628318789730  0.6672128659235511
  0.8718606711381228  0.9301788253206595  0.9994124350311713
  0.1377883758459806  0.0606798612679607  0.1625111454377284
  0.1332202761496097  0.0625498043165485  0.5020431012113251
  0.1348931036134911  0.0717154283186501  0.8356476870109422
  0.1336326279629736  0.2601375972623047  0.1661442575322904
  0.1352898827079019  0.2653232378175112  0.4964006997608524
  0.1245932697652676  0.2603252306953640  0.8284565784598267
  0.1321504417957112  0.4636428769285768  0.1692719109535414
  0.1294923683236662  0.4606297868815042  0.5019168898961411
  0.1316197141531363  0.4645148369647929  0.8357978034187116
  0.1303747392899459  0.6616173785563726  0.1663474309298993
  0.1279497110718710  0.6625330417681885  0.4960853867327901
  0.1351645113737784  0.6691880103077894  0.8311006076590396
  0.1374719062444743  0.8672018029312687  0.1677051194893902
  0.1411939471575884  0.8693701725129561  0.5051301261528071
  0.1363368928057362  0.8644868011231931  0.8406559353862934
  0.3440182001542729  0.0747911766188125  0.1672064787843569
  0.3354884067004005  0.0703616253415209  0.4990446916436686
  0.3365372155938736  0.0678746148785902  0.8280095055082656
  0.3371532476503163  0.2673309260503186  0.1703434067815041
  0.3309145967917247  0.2680678478138051  0.4910848177058004
  0.3386193387791064  0.2694597292358322  0.8385941870247230
  0.3310272259661074  0.4698888375433715  0.1650418606580004
  0.3944275232942960  0.5835700463596929  0.5732342168391199
  0.3359011184240314  0.4590835923954740  0.8369576530555087
  0.3372970309248056  0.6711418127816784  0.1617052514483984
  0.3260659510556310  0.6705257885255050  0.4927861066739835
  0.3330592503593841  0.6630909350829588  0.8341641673461919
  0.3311843677732835  0.8658313477702740  0.1578595895607112
  0.3384179875801137  0.8699360403139242  0.4953515908397922
  0.3312542742991971  0.8623847666664072  0.8331959494917741
  0.5344708969537481  0.0624922116815656  0.1672840151226377
  0.5381872702800659  0.0737753999767362  0.4957029092363929
  0.5359832850735444  0.0654149927492184  0.8272268709163253
  0.5390619394166900  0.2718591461491504  0.1699518356562783
  0.5277855933965521  0.2643926131101091  0.4889423488107112
  0.5406192104673483  0.2643543413119095  0.8314295993697073
  0.5275069925680377  0.4700954825351740  0.1731610253711653
  0.5224839608936469  0.4674205835157227  0.4769955143224623
  0.5212449797114117  0.4503851707808537  0.8390635873047823
  0.5408944196665182  0.6794216662714733  0.1627152953858058
  0.5473005295871926  0.6802206601618458  0.4906190928610059
  0.5355421705766966  0.6673435916723829  0.8263604269156545
  0.5356239072870972  0.8675295039643308  0.1643658521423600
  0.5404952685829509  0.8750026663245762  0.5019265494400691
  0.5320620310482729  0.8632627258159242  0.8343023905600159
  0.7333100366189347  0.0693678857649621  0.1592429016339744
  0.7341953053171751  0.0664132908377326  0.4971292120465280
  0.7357480653352567  0.0655141927928933  0.8312810905616781
  0.7296271695964536  0.2678006646413300  0.1730284128943912
  0.7399276342262445  0.2719549916568974  0.5016528989111506
  0.7339851109042512  0.2675108180161868  0.8364062462251166
  0.7306559954490609  0.4663853792707039  0.1666163352588914
  0.7244530879801406  0.4634415079260490  0.4888679968915006
  0.7363673337869183  0.4694623524578175  0.8280065527951871
  0.7413529632423937  0.6761120351813857  0.1615381614237109
  0.7252960109908702  0.6603750322602936  0.4989861850157529
  0.7235867828953970  0.6522317211296980  0.8285883660048788
  0.7412049079119222  0.8700789423754722  0.1641800404351275
  0.7354537175661632  0.8644055846603291  0.5005931953783718
  0.7363650511336447  0.8568819404182109  0.8326607324632059
  0.9349572921132270  0.0662807440543110  0.1642711155678051
  0.9366357508883832  0.0653670977502353  0.4990979734365903
  0.9346777832717776  0.0653505252188551  0.8296840400925485
  0.9387814162534581  0.2602660778424416  0.1730139405777895
  0.9302103288130564  0.2630103400670368  0.5050101793905575
  0.9353500784698393  0.2636938209822982  0.8361139181593455
  0.9289900321142563  0.4620625074709255  0.1646272809525114
  0.9276447209485901  0.4595055386290047  0.5045855827585171
  0.9380234988101375  0.4692548234956313  0.8438527501919975
  0.9277060105495685  0.6608277535026951  0.1663028755877413
  0.9387395314830730  0.6657067608038825  0.4981111782930623
  0.9295095153163261  0.6613512091024255  0.8264193233435299
  0.9378044482598457  0.8632117540579646  0.1662026671895485
  0.9367254646690646  0.8586604541893855  0.5035278523049825
  0.9344814039881709  0.8615930482243275  0.8301738900396267
  0.0689691059571475  0.1303356999717263  0.1248678132321396
  0.0693235820620608  0.1331175304367085  0.4581548816020697
  0.0661916718142571  0.1321999127504680  0.7843694088792252
  0.0690022548928440  0.3294043082232194  0.1279267481877612
  0.0630944866785405  0.3310903189235500  0.4652565314877774
  0.0662282698591546  0.3350860782821675  0.7868167167755630
  0.0661739485070414  0.5314857252152466  0.1276913355872747
  0.0577086112973978  0.5282868046252767  0.4608760003884565
  0.0695962356979178  0.5327701372789289  0.7966263772591843
  0.0649470799780429  0.7289009182356585  0.1265127630691817
  0.0720932863068272  0.7349722941779269  0.4535111430213535
  0.0670475385215412  0.7322355560701059  0.7895087796114711
  0.0672974549907125  0.9279443790482487  0.1235523048888507
  0.0684191233478274  0.9269425805499920  0.4626917608346564
  0.0725447742789744  0.9346732082149373  0.7966393702605181
  0.2708367210576534  0.1319458902770898  0.1212715280116162
  0.2680284744222921  0.1318503251760436  0.4574690583595155
  0.2699908195432237  0.1369314530035822  0.7964667412004542
  0.2676711200111018  0.3355619106243358  0.1236007607979012
  0.2637475939352194  0.3305455721715046  0.4472506654177011
  0.2660952020937122  0.3300120328661144  0.7933189977024931
  0.2656547997881349  0.5355297771022902  0.1221291012158171
  0.2580808699247958  0.5345129648296122  0.4550003406451529
  0.2700327032987100  0.5297693536731848  0.8017748669447609
  0.2628558672098000  0.7321211903515080  0.1232369681691919
  0.2628265095135342  0.7377154199163510  0.4546097445882372
  0.2683344322029970  0.7273923337854248  0.7904190591241864
  0.2695036487827808  0.9386385852674981  0.1268629111230477
  0.2734401843201794  0.9362128465355561  0.4583205701110861
  0.2680339326293492  0.9293781089248174  0.7899595829223036
  0.4779097283763921  0.1379941434880390  0.1263819954323683
  0.4663573615238800  0.1358756131243153  0.4543436666486784
  0.4730706891173485  0.1329663237145743  0.7869267449801091
  0.4683160904048332  0.3329604619888367  0.1288784505281903
  0.4613176965064244  0.3286995859508451  0.4581931841483584
  0.4668011798840320  0.3278141187509351  0.7858307008331675
  0.4651802702478122  0.5381907227040960  0.1270682615289979
  0.4536966906029642  0.5478599004524163  0.4622623170653897
  0.4696845510797317  0.5310025968322670  0.7981496377106276
  0.4672975730265593  0.7351233072588095  0.1177390585590203
  0.4653646226424141  0.7365014726687483  0.4644231275740839
  0.4672063301289579  0.7288557567532185  0.7899263409059148
  0.4641859692898466  0.9305582811576788  0.1236849855984225
  0.4719000249943585  0.9371121171373753  0.4536354627943132
  0.4654855488049006  0.9265400583182903  0.7901253912110082
  0.6672279118312285  0.1346574707525742  0.1247210984123280
  0.6685212497205626  0.1356158809884267  0.4588038693664492
  0.6691717004588760  0.1339307760297808  0.7869736428414397
  0.6711634351547200  0.3369529588244478  0.1239217092913829
  0.6645748199254743  0.3291347708328677  0.4599679102887166
  0.6723042580490974  0.3351898370500528  0.7933952192191885
  0.6648551523615031  0.5357814136085552  0.1292320890464256
  0.6597585757456162  0.5369287527071431  0.4538128826754808
  0.6564142933762305  0.5211870980232143  0.7908453773087544
  0.6709336872996666  0.7380108393882407  0.1141709654505648
  0.6735594799672693  0.7379428284305561  0.4587575613042921
  0.6659871223537666  0.7267639060898046  0.7906790036911417
  0.6706986427117403  0.9353350112638280  0.1217667727425723
  0.6715337145371967  0.9330854921382179  0.4536954846343092
  0.6682881104597943  0.9268057375606594  0.7939155344089520
  0.8672561658444314  0.1308354470772562  0.1245703667769804
  0.8671527715548321  0.1329244128042074  0.4573050487821840
  0.8698841661822860  0.1340148939918035  0.7906796689102041
  0.8681957679101158  0.3283216486923277  0.1325421168828227
  0.8694066221516842  0.3331866626286003  0.4557099302770339
  0.8697571462145244  0.3328831216036298  0.7962983874036599
  0.8635659609386188  0.5271767309913312  0.1233049459441451
  0.8630454902200894  0.5300184990696333  0.4622790534173760
  0.8670426976406287  0.5287996908102329  0.7857776020929795
  0.8698893749145634  0.7314822696143067  0.1174831422190010
  0.8631760765275458  0.7273167876418672  0.4609677231677483
  0.8584933252484929  0.7230471123838619  0.7889581934997699
  0.8725646522153154  0.9327270433751180  0.1253666170737998
  0.8722879550329437  0.9276950271804242  0.4619724589413894
  0.8676185667033333  0.9310816233475083  0.7906005515257125
  0.1393205662400726  0.0654587445882201  0.2919343152150211
  0.1327302681665009  0.0620633043157148  0.6289005089424388
  0.1317937733259615  0.0623538695865426  0.9596495992190544
  0.1279709163526591  0.2678902967990677  0.2930993142942383
  0.1385051062598761  0.2660950754068810  0.6218681656444346
  0.1342353287105345  0.2645642105945920  0.9522568623640048
  0.1265724496487895  0.4676494786339945  0.2923651117413746
  0.1296612588891209  0.4641941729575992  0.6280603609599109
  0.1368213098461691  0.4629357119804864  0.9595684746158847
  0.1352128281087015  0.6604738039807170  0.2919211477259171
  0.1332070519952089  0.6606220728628767  0.6231098263760639
  0.1317395326166458  0.6681376052993410  0.9559733050954660
  0.1396022433790041  0.8652841664942781  0.2897212580044251
  0.1344244930124923  0.8665522507411765  0.6263065235594856
  0.1311002761043719  0.8591290181520613  0.9648108197960573
  0.3390410860490762  0.0710502323971274  0.2925724370830481
  0.3331105285119952  0.0633516590371307  0.6253376187713682
  0.3382290510869890  0.0627302766234596  0.9525444710380387
  0.3321930468628355  0.2714292323494409  0.2876618640571218
  0.3346205429927812  0.2636355627872264  0.6202223406962651
  0.3334754738449110  0.2622646928969296  0.9621309541978060
  0.3270763463909981  0.4767874924842334  0.3026071921771515
  0.3359882430699985  0.4639049441526102  0.6305198415872093
  0.3336064201519061  0.4615728608696563  0.9614452272726586
  0.3383512311455978  0.6739423148483282  0.2887464237341246
  0.3364908445332229  0.6608300878590159  0.6248706287568594
  0.3337533702691224  0.6625737857742221  0.9601868033381878
  0.3370240425211778  0.8703708267778447  0.2837365825715583
  0.3344906616191239  0.8589139728527807  0.6203491519643975
  0.3307263496667882  0.8599090567479818  0.9580856283386474
  0.5356208734883101  0.0759485981489875  0.2902895400760558
  0.5343999137336135  0.0666192655042416  0.6214122099864546
  0.5353705861707942  0.0610383180870456  0.9552155199023201
  0.5336920321414587  0.2718387991783998  0.2871992939599216
  0.5391173502087232  0.2664435805816611  0.6237816552876077
  0.5374341544570352  0.2685288494209530  0.9599383714308436
  0.5330130425049608  0.4896012978214915  0.2954570776859623
  0.5306861450109247  0.4637986123121349  0.6174112058407903
  0.5234342838896024  0.4582153014911374  0.9617481444897047
  0.5413970855719730  0.6878476579375069  0.2914893369562515
  0.5264910036379030  0.6645881892011511  0.6163193114957358
  0.5307072807544220  0.6576903801311990  0.9528149804131887
  0.5337370990609143  0.8735050717467049  0.2901902601386718
  0.5382359339216798  0.8721744584419552  0.6294500879518046
  0.5348958403192017  0.8628354899312279  0.9575648126565734
  0.7370449686092071  0.0720633597975288  0.2855567882414944
  0.7329542221886880  0.0678695202977382  0.6263657669568328
  0.7332971626078233  0.0611633347396429  0.9548238029991143
  0.7262876944693694  0.2667388960757793  0.2958999455317420
  0.7396622656453885  0.2683555902768935  0.6263007586770794
  0.7360742432380543  0.2635919663581240  0.9636888887962543
  0.7316191449353086  0.4720828595940331  0.2955044016881501
  0.7353938924297362  0.4634768519089869  0.6192865352236188
  0.7283240808657970  0.4620734309550782  0.9545409419432125
  0.7388493200766876  0.6754525954465463  0.2895861136274895
  0.7276464418167496  0.6543574183202510  0.6236062740019584
  0.7241896132753979  0.6519748141523167  0.9533561154910422
  0.7441602974117019  0.8779607473563706  0.2905814554924258
  0.7301754185553105  0.8624531813151037  0.6263482811569460
  0.7369516334049321  0.8590673183393169  0.9548277444407860
  0.9397439308104213  0.0710417674652169  0.2916928014237932
  0.9308518703591899  0.0645627409179363  0.6252501937785918
  0.9359452006950285  0.0637831904023659  0.9549641002013474
  0.9323248357418998  0.2674066967116893  0.2964819069612293
  0.9377450941667068  0.2659296496358829  0.6285005038776406
  0.9352938439367723  0.2621401492027141  0.9613326565047637
  0.9286300335369789  0.4679973367850604  0.2883937579954345
  0.9354631709888386  0.4647706701411391  0.6276895101702109
  0.9355066858748965  0.4655555133467928  0.9671437970783420
  0.9290362249058975  0.6626985804850745  0.2909025909969223
  0.9383418731069221  0.6667804482268671  0.6240828592183775
  0.9230925865572663  0.6562676951692895  0.9529274548905188
  0.9449021870334174  0.8696321799298785  0.2934504077288588
  0.9266368775690613  0.8601174324565030  0.6289140349588379
  0.9294705135627113  0.8562593242258644  0.9574561255568447
 
  0.10444689E-02 -0.26960598E-02  0.95966328E-03
 -0.80311012E-03 -0.31394315E-03 -0.46713731E-02
 -0.17452586E-02  0.45330155E-02  0.42467668E-03
 -0.14052461E-03 -0.37020783E-02  0.22748923E-03
  0.99514332E-04  0.47547409E-02 -0.30304482E-02
  0.25528896E-02 -0.30732092E-02 -0.94033300E-03
 -0.20302602E-02  0.22827557E-02  0.10660081E-02
  0.75603618E-03 -0.87025972E-03 -0.11771091E-02
 -0.42445713E-03 -0.30413000E-02 -0.41256383E-03
 -0.84144650E-03  0.48135983E-03  0.25958054E-02
 -0.63844609E-03 -0.20409463E-02  0.12658045E-02
 -0.22112668E-02  0.15999328E-02  0.41822195E-03
  0.18965456E-02  0.22393525E-02  0.17862938E-02
 -0.12188519E-02  0.12470917E-02 -0.12371667E-02
  0.25370141E-02  0.12494047E-02  0.18533796E-02
 -0.23140778E-02 -0.21287153E-02  0.36088879E-02
 -0.54688356E-03  0.14368052E-02 -0.17521001E-02
 -0.24722588E-02  0.82023040E-03  0.91162478E-03
 -0.25450305E-03 -0.61759054E-03 -0.78264434E-03
 -0.66314571E-03  0.16390594E-02  0.54750930E-02
  0.34916301E-02 -0.45265584E-03 -0.73088278E-03
 -0.61682659E-04  0.91671608E-03 -0.22586450E-02
 -0.13685963E-02 -0.24832913E-02  0.11401086E-02
  0.10771411E-02 -0.46400838E-02  0.23155619E-02
  0.54650872E-03  0.15261141E-02  0.10004365E-02
 -0.25790940E-03  0.20537835E-02  0.20066753E-03
 -0.83073838E-03 -0.13373586E-03 -0.13073196E-02
 -0.57307292E-03  0.12994560E-02 -0.25048252E-02
  0.84555930E-03  0.63776531E-03 -0.14967396E-03
  0.20254410E-02 -0.24409422E-02  0.26091261E-02
 -0.32419201E-02 -0.27623506E-03  0.20862380E-02
 -0.27485376E-02 -0.17873929E-02 -0.33697099E-02
 -0.14934799E-02 -0.38745750E-02  0.22356902E-02
  0.11685174E-02  0.44560012E-02  0.20985634E-02
 -0.87752542E-03 -0.41993891E-02 -0.16324972E-02
 -0.10160076E-02  0.23964203E-02  0.48129665E-03
  0.62588723E-03  0.52577973E-03 -0.50827341E-03
 -0.47084441E-03 -0.31308126E-02  0.13453306E-02
 -0.18198686E-02 -0.17733602E-02  0.32656341E-02
  0.14941063E-02 -0.98999441E-03 -0.25561235E-02
  0.26067321E-02 -0.31503252E-02 -0.19279400E-02
  0.24924880E-02 -0.50868596E-02 -0.31319904E-02
  0.35752250E-02  0.61221355E-03  0.14515783E-02
 -0.10869904E-02 -0.51550933E-02 -0.11015194E-02
  0.82223364E-03 -0.43775360E-02  0.90248260E-04
  0.17184257E-02  0.22571952E-02 -0.14962251E-02
 -0.20687173E-02 -0.11132858E-02  0.10812894E-02
 -0.68118063E-03  0.41155096E-03  0.36102190E-02
  0.42834344E-03  0.18579750E-03  0.23670328E-02
  0.24545416E-02 -0.35696613E-02  0.36178547E-04
  0.15126236E-02  0.10862996E-02 -0.10483321E-02
 -0.20110494E-02  0.35138036E-03 -0.41658646E-02
  0.16017133E-02 -0.98540844E-03  0.25056447E-02
 -0.29097003E-02  0.27500608E-03  0.44020387E-03
  0.20204316E-02  0.27558455E-03 -0.91591467E-03
 -0.10924172E-02  0.58005501E-03 -0.32945303E-02
 -0.54803440E-03  0.99691429E-03  0.21966070E-02
  0.11006141E-02  0.30451102E-02 -0.83014835E-03
  0.37539208E-03  0.61255363E-03  0.10302801E-02
 -0.46963387E-02 -0.12509361E-02  0.64795984E-03
 -0.21764550E-02 -0.92089649E-03 -0.22017329E-02
 -0.48570122E-02  0.14795686E-02  0.49285700E-03
 -0.77050422E-03 -0.27426323E-02  0.17720353E-03
  0.95175676E-03 -0.11309070E-03  0.55612437E-02
 -0.43745530E-03 -0.60197204E-02 -0.46996353E-02
  0.17006853E-02  0.96266472E-04  0.14624690E-02
  0.44445553E-02  0.22131887E-02 -0.24074085E-02
  0.21014974E-02  0.26305036E-02 -0.73248540E-03
  0.31309526E-02 -0.30852367E-03  0.85945326E-03
 -0.55836396E-02  0.30301330E-02 -0.38804485E-03
 -0.31411123E-02  0.17139078E-02 -0.39113824E-03
 -0.12222386E-03 -0.99530079E-03 -0.84024062E-03
  0.13708540E-03  0.26217086E-02 -0.14860035E-02
 -0.10121063E-02  0.21836974E-02  0.29643212E-02
 -0.19012649E-02 -0.22212145E-02  0.11418017E-02
 -0.18672321E-02  0.58326257E-03 -0.84352939E-03
  0.33936439E-03  0.34151744E-02 -0.29877997E-02
  0.23062596E-02  0.68887988E-03  0.25949267E-02
  0.29894060E-02  0.10587985E-02  0.19258599E-02
 -0.60552463E-03  0.44147429E-03 -0.22152112E-02
 -0.13960877E-02  0.16578128E-02 -0.32796838E-03
  0.11678049E-02  0.64419358E-03  0.10254123E-02
  0.15871545E-02  0.29589598E-03 -0.97509432E-03
  0.51510511E-02 -0.22100789E-02 -0.59802240E-03
 -0.88120251E-03 -0.17557626E-02  0.42244929E-03
  0.15830714E-02 -0.15603094E-02  0.42710226E-03
 -0.42903604E-03 -0.21739407E-02 -0.27289130E-03
 -0.57815985E-03 -0.17379009E-02 -0.97296530E-03
  0.17014556E-02  0.23608188E-02  0.94544215E-04
  0.11233739E-02  0.41682163E-03 -0.77412521E-03
  0.79073947E-03  0.22538184E-02 -0.20488293E-02
  0.28010648E-02  0.40828093E-02 -0.18902697E-02
 -0.35304659E-02  0.21975537E-02  0.14912006E-02
 -0.28705800E-02 -0.15439733E-02 -0.35188643E-02
  0.22564021E-02  0.14229549E-02 -0.16025822E-03
  0.20135802E-02  0.54708169E-03 -0.12920642E-02
 -0.59840041E-03 -0.13458572E-02 -0.19944580E-02
 -0.28871521E-02  0.20697350E-02 -0.25736089E-02
 -0.14699039E-02  0.98968937E-03 -0.15891173E-02
  0.34176417E-03  0.75811564E-03  0.34828098E-03
 -0.28809647E-02 -0.24243073E-03  0.15548116E-02
 -0.53877932E-03  0.69276521E-03 -0.36661263E-02
 -0.17983215E-03 -0.17939818E-02  0.23646239E-02
 -0.10754592E-02  0.18685279E-02 -0.65343931E-03
 -0.59222543E-03 -0.34239104E-02 -0.32802524E-02
 -0.20221038E-02  0.42265831E-02 -0.56247392E-03
  0.42142337E-03 -0.18745011E-02  0.21918563E-02
 -0.16832638E-02 -0.10894350E-03 -0.28353287E-02
  0.19952473E-03 -0.43788547E-02 -0.37615836E-02
 -0.20494460E-02 -0.39339781E-02  0.61848310E-03
  0.98618475E-03 -0.12879706E-02 -0.37903859E-03
 -0.19437754E-02  0.81800287E-03  0.48802448E-03
 -0.37570389E-02 -0.19005421E-02 -0.22771789E-02
 -0.43016064E-02 -0.43334016E-02  0.13665509E-04
  0.21474833E-02 -0.79011604E-03 -0.72942063E-03
 -0.20104673E-03 -0.33552760E-02  0.15040960E-02
  0.12311953E-02  0.12790770E-02 -0.29734806E-02
 -0.16576915E-02  0.18768191E-03  0.24893262E-02
 -0.42050223E-02 -0.12728066E-02  0.32383963E-02
 -0.96924490E-03 -0.26025033E-02 -0.38259827E-03
  0.27064061E-03 -0.25851018E-03  0.46369081E-02
  0.17990540E-02  0.59889840E-03 -0.13830554E-02
 -0.47187311E-02 -0.13158163E-02  0.36420521E-02
  0.24392023E-02  0.55168905E-02  0.16267600E-02
 -0.23835171E-02  0.24790934E-02 -0.24748537E-02
  0.72355160E-03 -0.26928535E-03 -0.71497119E-03
  0.16692330E-02 -0.33817729E-03 -0.47743686E-03
  0.19602143E-02  0.45007983E-02 -0.57453594E-03
  0.11235094E-02  0.12228075E-02  0.11923940E-02
  0.34093195E-02  0.10599522E-02  0.50471785E-03
  0.28208360E-02  0.16946583E-02 -0.92282919E-03
  0.50538762E-03  0.47804725E-05  0.12792083E-02
 -0.22552092E-02  0.13860303E-02 -0.19663462E-04
  0.14315558E-03  0.17928657E-02  0.27329481E-02
 -0.33179921E-04 -0.52125546E-03 -0.20611115E-03
 -0.12477598E-03 -0.37266064E-03 -0.12156884E-02
 -0.21404772E-02  0.15652693E-02  0.24782123E-02
  0.14818324E-02  0.18570842E-02 -0.40509672E-02
  0.54647353E-03 -0.29695348E-03 -0.71705947E-03
  0.51227488E-02 -0.68842893E-03 -0.14352659E-03
 -0.30212542E-03 -0.14504650E-02 -0.14040829E-02
  0.30525602E-02 -0.18003218E-02  0.13060432E-02
  0.30973363E-02  0.44306631E-02  0.53186973E-03
  0.50559016E-03 -0.36092800E-02 -0.38962440E-02
  0.13194398E-02  0.32296640E-02 -0.21257232E-03
 -0.20041430E-03  0.26086039E-02 -0.19730519E-02
  0.20416601E-02  0.22233867E-03  0.21483973E-02
 -0.12871260E-02  0.38551789E-02  0.58916519E-02
 -0.21184474E-02  0.26154522E-02 -0.21477091E-02
  0.10527733E-03  0.38987377E-03 -0.28115256E-02
  0.55168944E-02  0.54039294E-02  0.40976514E-02
  0.47873217E-03  0.35301140E-02  0.53873843E-03
  0.31545202E-02 -0.21368321E-02  0.27746211E-03
  0.21451491E-02 -0.28051161E-02  0.29778671E-03
  0.11017196E-02  0.56801000E-04 -0.31496832E-02
  0.29579726E-02  0.46971496E-03 -0.15289677E-02
 -0.96895355E-03 -0.46406156E-03  0.17065395E-02
 -0.63710438E-04 -0.10110095E-02  0.24375951E-03
  0.15453718E-02 -0.33978129E-02 -0.46785498E-02
 -0.25612604E-03 -0.48937679E-02  0.44768359E-02
 -0.22193654E-02  0.52814689E-02  0.44752545E-02
  0.11287596E-02  0.35099623E-02  0.67220996E-02
 -0.22457553E-02  0.87008259E-03 -0.47102340E-04
  0.83657956E-03  0.10992342E-02  0.56316043E-02
  0.15959684E-02 -0.14144539E-02  0.83622944E-03
 -0.45359852E-02  0.38346654E-02  0.12327910E-02
 -0.31510587E-02  0.67619423E-03 -0.24784058E-02
 -0.15044088E-02  0.35973922E-02 -0.21838558E-02
 -0.54450035E-03 -0.42947258E-02  0.79926328E-02
 -0.38782565E-02  0.28108191E-02  0.29742630E-02
  0.47779676E-02 -0.37008322E-02  0.35045495E-02
  0.16083545E-02 -0.48332104E-02 -0.39858281E-02
  0.34248534E-02  0.54751360E-02 -0.41776800E-02
  0.92723428E-03 -0.46827105E-02  0.35244848E-02
 -0.52024665E-03 -0.19536614E-02  0.53064799E-03
 -0.17568820E-02  0.21304465E-02 -0.10463580E-03
  0.20292388E-03 -0.24203447E-02  0.43050865E-02
 -0.53322842E-03  0.13767161E-02  0.24320106E-03
  0.37536818E-03  0.38575883E-02  0.11369704E-02
  0.30019822E-02 -0.43303704E-03  0.49689072E-04
 -0.53708454E-02 -0.11434175E-02 -0.61780945E-02
  0.57261259E-02 -0.28117581E-02 -0.48731469E-03
  0.48505133E-03 -0.34513570E-02  0.55971216E-06
 -0.85160060E-03 -0.28144906E-02 -0.30368958E-02
 -0.26414080E-02 -0.88752385E-02 -0.36500658E-02
 -0.66580161E-03 -0.34587206E-02 -0.16101184E-02
 -0.28292017E-03 -0.52569365E-03 -0.37877715E-02
 -0.17981960E-02  0.32024598E-02 -0.21073299E-02
 -0.37400017E-02 -0.31301476E-02  0.16051870E-02
 -0.50630659E-02 -0.28373804E-03 -0.40905043E-02
 -0.18381056E-02 -0.23516686E-03  0.85988724E-02
  0.11999410E-02 -0.39965814E-03  0.21907864E-02
  0.11097505E-02  0.16260096E-02  0.51838546E-02
  0.51412864E-02 -0.52676249E-02  0.58176844E-02
  0.90596041E-03 -0.58732587E-02  0.47692703E-03
  0.13061138E-02 -0.57517383E-03  0.42864463E-02
  0.19273652E-02  0.45113133E-02 -0.40528707E-03
 -0.18044063E-02 -0.12799236E-02  0.15484611E-03
  0.10271087E-02 -0.36603480E-03  0.14614028E-02
  0.22163251E-02 -0.46116865E-04  0.16427967E-02
  0.49318077E-02  0.19316680E-04  0.10306810E-02
  0.14039353E-02 -0.25624439E-02 -0.14697598E-02
 -0.93067584E-03  0.62837937E-02 -0.33169264E-02
  0.41582333E-04  0.11442168E-03  0.62968486E-03
  0.26775523E-02 -0.21969139E-02 -0.13582157E-02
  0.28710937E-02  0.11666805E-02 -0.55976567E-02
 -0.10394894E-03 -0.55588433E-02 -0.30349485E-02
  0.16386024E-02  0.10931503E-02  0.88791555E-02
  0.38767578E-03  0.45256509E-03  0.55048784E-02
 -0.11031376E-02 -0.67869507E-03 -0.93927845E-03
  0.31914024E-02  0.34294038E-02 -0.10408602E-03
  0.49608605E-02 -0.27185622E-02  0.97619294E-03
 -0.42031843E-02  0.32507601E-02 -0.24011367E-02
  0.13434352E-02 -0.28151372E-02  0.20241958E-02
  0.46151711E-02 -0.36710487E-02 -0.49949826E-03
  0.30833377E-02  0.21130642E-02 -0.46936908E-02
  0.20827639E-02 -0.79802295E-02 -0.10173561E-02
  0.40761702E-03 -0.26402884E-02  0.25716477E-02
 -0.18795885E-02  0.33845993E-02 -0.17675888E-02
  0.13852094E-02  0.53416247E-02  0.60766096E-04
 -0.35359922E-02  0.48970683E-02  0.33386292E-02
  0.61529099E-03  0.20605541E-02 -0.24137190E-02
  0.27196121E-02 -0.50265261E-03  0.45877519E-02
 -0.40866147E-02  0.54139667E-03 -0.96610005E-03
 -0.50329265E-03 -0.49422128E-03 -0.24564751E-02
  0.35069891E-02  0.53394640E-02 -0.10320997E-02
 -0.46241019E-02  0.16481771E-02 -0.11059242E-02
 -0.66448914E-03  0.16072196E-04  0.40051586E-02
 -0.53943847E-03  0.40503013E-03 -0.52875329E-02
  0.36659982E-02 -0.12412708E-02  0.20822216E-02
 -0.39353118E-03 -0.47554105E-02  0.22626649E-02
 -0.65564392E-03  0.11040165E-02 -0.13726078E-02