Ga150 N150                              
   1.00000000000000     
     8.0482965387795637  -13.9400700962268846   -0.0000003151961981
     8.0482906673966994   13.9400667053525016   -0.0000002254193136
    -0.0000005268402214    0.0000000487389220   15.7345155301750257
   Ga   N 
   150   150
Direct
  0.0576712165856173  0.1240149583510645  0.3229175567310115
  0.0705497356323383  0.1325335049498026  0.6620805967320557
  0.0703717058672323  0.1332998996728573  0.9947794899925189
  0.0683056783094446  0.3363682321606883  0.3389181093279743
  0.0696502733528618  0.3228739668693688  0.6633219386745220
  0.0727209312414604  0.3296780571501762  0.0027449793894680
  0.0589454561429958  0.5237894971629341  0.3355475315629796
  0.0646208665690270  0.5255001831018067  0.6679006396126832
  0.0701688112692110  0.5364389803702841  0.9989625231863395
  0.0679393184740111  0.7240516219224195  0.3228017979937529
  0.0742645092556948  0.7258782535556088  0.6644524609229299
  0.0591665191445633  0.7244019108947457  0.0020357207098453
  0.0791998942692293  0.9348867258055109  0.3308833293164241
  0.0649155074621142  0.9273664077979533  0.6689527436117387
  0.0653660689048811  0.9302046982717399  0.9965164753394203
  0.2724856966399643  0.1366738261390047  0.3294437676404315
  0.2702564229621037  0.1352307344351474  0.6683948105543578
  0.2673794569585090  0.1268108136291017  0.9958682455579794
  0.2565740172704157  0.3190762394597712  0.3111791032680273
  0.2730619573650487  0.3303967683684571  0.6655816139586018
  0.2709220101626283  0.3353571940641185  0.9998863544366812
  0.2646206951677447  0.5433197861167410  0.3287583743405549
  0.2529566853828508  0.5099775200774302  0.6851052110103315
  0.2612783816974429  0.5295643631994573  0.9968057373673169
  0.2707616086357132  0.7412742361527808  0.3336214850366140
  0.2657215970404228  0.7259331853587222  0.6616518527768780
  0.2624691064683001  0.7289742668717956  0.0020987443050162
  0.2783205439566102  0.9362155726965693  0.3390008377206838
  0.2647844914212356  0.9235377284056829  0.6663706844995012
  0.2648001296012243  0.9345288067341228  0.0039988616084709
  0.4739720974094319  0.1458976133241889  0.3232819937342260
  0.4643231642270843  0.1291464996426288  0.6596968833752181
  0.4761251642663564  0.1332864804784911  0.0013074777529370
  0.3275648768757732  0.4530052942244918  0.4296028147511417
  0.4667041185350277  0.3313974964035173  0.6597030556391360
  0.4675738913668949  0.3268780876423101  0.0068280601451021
  0.4711245165615579  0.5569763211175107  0.3111507861655890
  0.4708810004073980  0.5284768130124257  0.6803700812982438
  0.4636671979239784  0.5335628108414060  0.9997123463900532
  0.4641882586548580  0.7435436716627416  0.3373497548608347
  0.4715744133524502  0.7321668334036910  0.6669916603512982
  0.4664516697105388  0.7292141664642906  0.0029812361555716
  0.4710125501244721  0.9450539679998503  0.3263043256519944
  0.4647429980176063  0.9293573467740757  0.6668440930517995
  0.4587941080652342  0.9279156744479985  0.9964398781309637
  0.6630204202947255  0.1312407061728791  0.3447128943221704
  0.6643719536376060  0.1384922612120709  0.6606833269193162
  0.6693319256348925  0.1345922399285694  0.9889012894593153
  0.6652010521345887  0.3372509159175062  0.3337798993737933
  0.6723658722321330  0.3379849737508657  0.6632047743202061
  0.6724053371406213  0.3349713659777933  0.9942961309780513
  0.6582755659656123  0.5340652979412853  0.3207707400919731
  0.6596546015545752  0.5232930160815885  0.6663639358120079
  0.6589661139011361  0.5297619194106190  0.0035671643823445
  0.6749899699918768  0.7419395072313665  0.3319575223720582
  0.6722107387249162  0.7304393728383749  0.6647916275632799
  0.6721520823421075  0.7378121327584672  0.9994673289461116
  0.6691824480571034  0.9363899722658600  0.3233410656941003
  0.6641360040164919  0.9359445157067634  0.6753336411345220
  0.6736204591860135  0.9359722638365856  0.9957596304222907
  0.8687531826362399  0.1273065392259974  0.3349671496552162
  0.8652667211178493  0.1316171284209484  0.6635549151122184
  0.8664587848039044  0.1349615763204926  0.9992552109947803
  0.8602285134189659  0.3265999475242132  0.3202236235090943
  0.8691377268903163  0.3328879946825827  0.6705063280980038
  0.8720392516459765  0.3344175273848896  0.0080415707063962
  0.8628292095354725  0.5338686206974643  0.3430185371427003
  0.8666492446270400  0.5292259597867504  0.6599227645940490
  0.8561616922466676  0.5312024442173542  0.9938017526915631
  0.8751347698657671  0.7357637806545634  0.3325997756941684
  0.8575159469911046  0.7216488299607280  0.6676829887847486
  0.8562887373278129  0.7245646383706700  0.9917402989139221
  0.8784481522178872  0.9323249891184977  0.3438976475127501
  0.8623079978218453  0.9285466779241687  0.6684180171399433
  0.8735938586185292  0.9374131450216531  0.9979165470245468
  0.1395576178336874  0.0659163608587967  0.1609945765064674
  0.1330336937883881  0.0623428242771187  0.5020727258295015
  0.1310711793308914  0.0640877889847442  0.8309685433853374
  0.1293959682353463  0.2643375019592564  0.1629187250249155
  0.1297830241783506  0.2634392915652467  0.4949495769444148
  0.1306048690698516  0.2610433807596896  0.8338148194095569
  0.1285313530659939  0.4679774354620530  0.1649013710015567
  0.1263807931860133  0.4599114630763153  0.5064121466520843
  0.1294997917221336  0.4610253472222652  0.8339780355762044
  0.1321359626301903  0.6653249952158248  0.1726060661278757
  0.1270461018279296  0.6596331856595399  0.5000008435114872
  0.1353808954906851  0.6661029056401140  0.8283914943305051
  0.1350196548369922  0.8658551747620080  0.1661703744456964
  0.1393487523412426  0.8630865272920190  0.5034966225210820
  0.1339332932317591  0.8616672870752085  0.8465998246554653
  0.3404671523182161  0.0718118708068259  0.1701948265371772
  0.3365309985240881  0.0687302855775764  0.4985673129573566
  0.3417112605070025  0.0712109433553470  0.8296026284345228
  0.3391371800445866  0.2727647233720020  0.1611343075898695
  0.3343318140300517  0.2647503586828167  0.4897508429630388
  0.3421590635519465  0.2663548161242443  0.8413841212593438
  0.3300624607346835  0.4713241323556276  0.1629370461552704
  0.3812025180422567  0.5687269908548546  0.5506149593873279
  0.3393490462874254  0.4665083248544948  0.8365982640215586
  0.3354978572403136  0.6701491506825886  0.1551538237218341
  0.3339128294225179  0.6765809747798649  0.4952416540697570
  0.3300564289606664  0.6648030764907388  0.8363892039706402
  0.3287951136941674  0.8647955258647743  0.1629305438667369
  0.3354868787420037  0.8686266387205581  0.5003360267785401
  0.3319545287131009  0.8655313872521673  0.8317940802991644
  0.5387092319333279  0.0628748618988897  0.1714060366691608
  0.5253355310689062  0.0603827291771961  0.4949689693628117
  0.5353843154152349  0.0635111103026331  0.8245223206913528
  0.5369205848428910  0.2694275959861686  0.1686780927364664
  0.5277503022871117  0.2644351531220894  0.4897389473420347
  0.5378019012539196  0.2601806885355197  0.8311804510768177
  0.5254247429456865  0.4685491497219246  0.1723468476831090
  0.5266349897398278  0.4687948683875430  0.4884736089787492
  0.5221081583713201  0.4541730487053815  0.8424328746909544
  0.5436145927413027  0.6859232117277840  0.1632672236654639
  0.5510885459735390  0.6867421147420423  0.4968018860792334
  0.5417031571485859  0.6714946703874868  0.8315598537437140
  0.5400339855515812  0.8728586083763807  0.1679750590459110
  0.5385815815032960  0.8686785874085604  0.5016125186435850
  0.5305705414957905  0.8622386544739583  0.8365036322268882
  0.7307210027737476  0.0678500545465378  0.1617638315469598
  0.7338943612641804  0.0545415868157222  0.5011293479393969
  0.7306414086975939  0.0669826585034812  0.8301656987478788
  0.7321016380255800  0.2614868157616290  0.1697562626087410
  0.7415568128710576  0.2681574634848756  0.5025000485468579
  0.7331451015775129  0.2700324144326468  0.8324058599400456
  0.7246557763853846  0.4623364574902399  0.1626551028736145
  0.7171162894320986  0.4575222439517453  0.4906750466796452
  0.7333564134217138  0.4702381054819095  0.8240328725040236
  0.7415736464063266  0.6726416148438203  0.1632172240959906
  0.7231514937542424  0.6568191368100827  0.4965896672294641
  0.7240899655530850  0.6538411551277336  0.8303543370120436
  0.7495343627411097  0.8736739720936295  0.1696315628368245
  0.7410017998861956  0.8633025373670070  0.5034634729973756
  0.7414682867292547  0.8678517410007964  0.8311812737585041
  0.9340351757983004  0.0671466801998788  0.1619685826215412
  0.9391943783249552  0.0696393422562778  0.5055668835837441
  0.9367829143773830  0.0685615254354078  0.8302390878008827
  0.9366591710335386  0.2603080766551338  0.1743365923515631
  0.9298970607514787  0.2605665115336791  0.5022642256947499
  0.9316732324680079  0.2602961843282575  0.8378104549870484
  0.9263055302244052  0.4651661083892508  0.1654188238936351
  0.9292830814890666  0.4521195604958321  0.5030994323220509
  0.9341991155467984  0.4689537760068692  0.8418381730418205
  0.9301229808751131  0.6648874656078584  0.1639748380953677
  0.9380500554659155  0.6593593260545736  0.5010760214856422
  0.9327397397373761  0.6646628564781473  0.8256984861396329
  0.9381279696756840  0.8662285786416850  0.1638709066510511
  0.9378691161305616  0.8557303005123426  0.5083794640973491
  0.9337782232743724  0.8594127902526856  0.8320936069846893
  0.0695409047903473  0.1325829107079596  0.1214140645554092
  0.0659972250666979  0.1297116368441731  0.4539597152519315
  0.0719490210882666  0.1350821906473960  0.7875024346362941
  0.0663257236114796  0.3366477974252940  0.1274285188701262
  0.0633995027362467  0.3323639220252564  0.4619089647918264
  0.0643098512167008  0.3272028260301257  0.7875106560982564
  0.0645432854326231  0.5365923638240170  0.1267310549763524
  0.0654202849383930  0.5279592795366479  0.4597451795579130
  0.0640899566517337  0.5276190338842643  0.7929192839047313
  0.0653569216636480  0.7313132633070113  0.1257615963582885
  0.0726928268606578  0.7310588410530851  0.4548969665589559
  0.0670356388161072  0.7289664832650565  0.7908830552325536
  0.0700466312601470  0.9321709653279389  0.1225358956002987
  0.0687338677295198  0.9260476203408753  0.4595811912627525
  0.0681176299921840  0.9286556307993887  0.7936284829799404
  0.2739196664101889  0.1337778585812611  0.1216981004577151
  0.2696929290402817  0.1300049101969482  0.4556661851042459
  0.2707997895041862  0.1367142485513012  0.7950259615241982
  0.2656595087651693  0.3381596529773801  0.1261662743340980
  0.2562051084623583  0.3151933361671275  0.4438503421308492
  0.2683997165409205  0.3314277209351931  0.7993063998385035
  0.2613812600074233  0.5348731543608518  0.1158994270088580
  0.2667910797812709  0.5357903146329817  0.4507511093253990
  0.2635795625589293  0.5305504479072675  0.8035194850421257
  0.2638319325274220  0.7341320059708403  0.1264014888034113
  0.2641167172605345  0.7331596860836733  0.4577593971860706
  0.2684137910747880  0.7287415280777423  0.7837240817549491
  0.2705625255796164  0.9388114768937060  0.1251912911249791
  0.2695800997293549  0.9299524753540381  0.4615051600883669
  0.2637135479691503  0.9302672352615255  0.7910742586190355
  0.4728759210309144  0.1323101008146776  0.1292371335653174
  0.4616335821479582  0.1314160175575210  0.4513374452231429
  0.4741869431542676  0.1345569367833688  0.7851985541911650
  0.4731123308809980  0.3374683872278835  0.1258486200120022
  0.4685523243163405  0.3389465270444867  0.4525725298293787
  0.4666832132009025  0.3311685247467983  0.7868266520429195
  0.4630905619609559  0.5419511073092551  0.1313801650261708
  0.4633959423220713  0.5557241486062259  0.4517977539099390
  0.4719200704305450  0.5346953909906071  0.8019556235366302
  0.4693707837783822  0.7416506828897442  0.1224496582499241
  0.4683018225878938  0.7427424237438808  0.4607838576582479
  0.4628731651988582  0.7285785630823758  0.7873976495815824
  0.4641150633105390  0.9322730591861770  0.1253930685429090
  0.4662003646878507  0.9284407904560941  0.4544303599233769
  0.4659953491580807  0.9287670863630993  0.7892548727641929
  0.6641227559919797  0.1290710078431506  0.1178399490681902
  0.6623544075791575  0.1209796334961889  0.4661090981658050
  0.6677774082198097  0.1374244262116243  0.7849159343955013
  0.6723417511697076  0.3298844159735860  0.1231834637890819
  0.6682138671011896  0.3260817399953473  0.4598812530365922
  0.6699990807348256  0.3328372918932174  0.7905407059039715
  0.6620266407166983  0.5366010030063724  0.1244993582021096
  0.6556859441262708  0.5317186975052132  0.4479236822311585
  0.6549287611341860  0.5248267759890276  0.7914431930868193
  0.6755025953810372  0.7438093779748460  0.1206200698102018
  0.6738423872845072  0.7342881913321556  0.4562815354288468
  0.6708351196421491  0.7327463739337279  0.7897807889803203
  0.6757616681940862  0.9368404570456832  0.1239976077429362
  0.6720126148741816  0.9272564724935071  0.4550121656643358
  0.6656726911949642  0.9291079192000340  0.7944057702387853
  0.8668294938902039  0.1315622648233356  0.1268679030412208
  0.8673273153883538  0.1303634694068191  0.4577319039428426
  0.8659727833605730  0.1343691257203294  0.7872537367661235
  0.8693301459924265  0.3310231200477606  0.1297449860501573
  0.8701888499368299  0.3293532491507090  0.4531672817133797
  0.8701288968566134  0.3324287749971631  0.7972272612311988
  0.8606489419880063  0.5296902457549231  0.1190346714838363
  0.8642021320852421  0.5231629267356994  0.4645662615415697
  0.8655176967002000  0.5288897304422977  0.7849302537310059
  0.8709881973684603  0.7352688922114385  0.1164323625095834
  0.8683340287552123  0.7261118769534789  0.4597128920128929
  0.8598332421588519  0.7238997487151841  0.7916228828011045
  0.8771224053001991  0.9362266398275780  0.1222735438487137
  0.8783047534550735  0.9334505968643194  0.4685090424916253
  0.8740492053581796  0.9352873986516715  0.7915568518323014
  0.1374356821587442  0.0669447210059536  0.2883005222137808
  0.1321638543677059  0.0596250512345944  0.6288015916590950
  0.1338190210553403  0.0640362229068638  0.9569993394484090
  0.1177720702113995  0.2587744269919006  0.2883090487332522
  0.1420508263607258  0.2664850214352739  0.6208843407794216
  0.1397952598905935  0.2689028663974157  0.9561584516204608
  0.1317859801292148  0.4654327320446175  0.2875855801367269
  0.1307221097787462  0.4578278685839806  0.6281670458189574
  0.1277775150372635  0.4599230183331793  0.9590943962414350
  0.1360512214238885  0.6586061545342727  0.2968626145913403
  0.1320186772700886  0.6553803376435345  0.6252282646817857
  0.1331629209781258  0.6667226400071006  0.9527214280332302
  0.1419686396368049  0.8641867161869672  0.2914575130447322
  0.1305275265048121  0.8569768821734360  0.6248536836237941
  0.1315425991656036  0.8618725398644167  0.9671422775442036
  0.3396611710988893  0.0665265941201609  0.2921536281372942
  0.3311428921636357  0.0621744505573521  0.6264727098451432
  0.3419065301032310  0.0651381663060861  0.9538875984666356
  0.3383540589623120  0.2651891502039182  0.2852940807672025
  0.3355088991677899  0.2675212089540794  0.6184515094097707
  0.3349106411120564  0.2615367458483603  0.9650145697352366
  0.3249024600013567  0.4664593148898101  0.2940655350708051
  0.3385958882964447  0.4677221833116912  0.6354207581309944
  0.3344432733448127  0.4683816441002335  0.9623330855679666
  0.3384654830292252  0.6765333101516423  0.2813036699551415
  0.3316156765291293  0.6390850108517958  0.6135513451682957
  0.3332270604085414  0.6691971094959270  0.9579066593143628
  0.3380878779229760  0.8688640943421947  0.2874438861710084
  0.3312297956569308  0.8582164025337028  0.6242587903015890
  0.3239470475486874  0.8587424316305649  0.9598868499663831
  0.5427819732630860  0.0779253391717248  0.2926188445758122
  0.5295317086909986  0.0606719996153493  0.6240321919199752
  0.5320014061292854  0.0621241209594171  0.9524819441326197
  0.5404335593271469  0.2771076806043723  0.2891692405900501
  0.5389799349017118  0.2647898551761099  0.6232960795559497
  0.5372374722172095  0.2669230437606958  0.9584062857026784
  0.5346037239782039  0.4901660853545969  0.2864849051220031
  0.5314543278747124  0.4653555074666402  0.6204926023037479
  0.5240747684924715  0.4596451652054067  0.9660133040774046
  0.5409332484736415  0.6956947055344807  0.2829208894588062
  0.5249282078191361  0.6518871063923909  0.6226202431824814
  0.5362571691366399  0.6700103738987402  0.9566593001786308
  0.5331284370030509  0.8721128453369930  0.2927824542839865
  0.5327229501104529  0.8625755423939768  0.6277649615774582
  0.5307635370791736  0.8623672724124609  0.9617910777792900
  0.7361606681139259  0.0705014135767241  0.2911066664112266
  0.7307399679424792  0.0673667583361925  0.6240577561462404
  0.7379559262498470  0.0688019523917800  0.9526637739704965
  0.7254893498820199  0.2610590454145967  0.2924633440407129
  0.7403818093278933  0.2695966871575752  0.6248047561436459
  0.7391859850607820  0.2682909782574101  0.9573867235120198
  0.7355429767384191  0.4672382358363679  0.2913226480358823
  0.7329237789627395  0.4683839935052709  0.6208230111143331
  0.7261501223574260  0.4656255923313761  0.9531758457710096
  0.7428836274063469  0.6754626896057958  0.2900961002329903
  0.7274934886541659  0.6582134739630954  0.6232179880026610
  0.7235793964901962  0.6613297252719006  0.9547172420603096
  0.7427406363037573  0.8743059570238915  0.2987187225991456
  0.7279136569873074  0.8653113502139624  0.6297985744168229
  0.7376584870684991  0.8684015518932021  0.9530048261046909
  0.9289083273310963  0.0589124472569314  0.2864641398576855
  0.9327256869855516  0.0648436381064410  0.6283607866050210
  0.9376385919605470  0.0721336010762495  0.9541486875898714
  0.9356519633118902  0.2658463875459125  0.2975386239802851
  0.9347700243192931  0.2624214465309134  0.6247413190420186
  0.9384639403477881  0.2684544823632710  0.9614066598165776
  0.9297643721703104  0.4672373904655629  0.2924647946900528
  0.9339311950942827  0.4631771004493880  0.6252268891984377
  0.9358026280272079  0.4701612748845603  0.9652396002446473
  0.9334860546988912  0.6645031520532664  0.2905674307803908
  0.9366832687172005  0.6637750549914847  0.6253772125378715
  0.9334553457712447  0.6657123540983083  0.9500742573524370
  0.9432765202435334  0.8689187409407674  0.2906242057886047
  0.9296504966378398  0.8609222868931963  0.6315600010953063
  0.9307126716164938  0.8629029737078802  0.9565585936921682
 
  0.45971114E-02 -0.19126653E-02 -0.14981600E-02
  0.17083184E-02  0.16561425E-02 -0.51383382E-02
 -0.21443897E-02  0.21855407E-02 -0.25229384E-02
  0.44908497E-03 -0.73365462E-03  0.13043838E-02
  0.71171776E-03  0.34011395E-02 -0.21362292E-02
  0.29626270E-02 -0.11552886E-02 -0.12899491E-02
 -0.22809860E-02 -0.25607204E-02  0.64386215E-03
  0.13708611E-02 -0.32426764E-02 -0.35819534E-04
  0.12674102E-02 -0.22957864E-02 -0.18125854E-02
 -0.43238309E-04  0.30493797E-03  0.19599810E-02
 -0.96380311E-03  0.89944915E-03 -0.32454258E-03
 -0.21827317E-02  0.45048996E-04  0.30715344E-02
  0.32233564E-02  0.85038910E-03  0.26184844E-02
 -0.20254415E-02  0.39291831E-02 -0.16057886E-02
  0.76053186E-03  0.62572135E-03  0.24392125E-02
  0.37476482E-02  0.72990819E-03  0.11076657E-02
 -0.14664047E-02  0.79846848E-03 -0.10625359E-02
 -0.43504226E-02  0.29668037E-02 -0.10151903E-02
  0.61220796E-02 -0.20322180E-02 -0.29960785E-02
  0.76158770E-03 -0.21292272E-02  0.27587316E-02
  0.69162944E-02  0.40771126E-02  0.49453460E-04
 -0.41564346E-03  0.34553148E-02 -0.36535560E-02
  0.13055750E-02 -0.20749634E-02  0.66786851E-03
  0.22984921E-02 -0.91084271E-02  0.42894070E-02
  0.24254740E-02  0.73996046E-03 -0.54321059E-03
  0.16564627E-02  0.13753226E-02 -0.11532915E-02
 -0.20028611E-02 -0.70616883E-03 -0.30997785E-02
 -0.45428312E-04  0.20481400E-02 -0.40460946E-03
  0.31178646E-02 -0.28680670E-03 -0.96238944E-03
 -0.18811044E-02 -0.32019335E-02  0.86321044E-03
 -0.24380555E-02 -0.62301050E-04  0.12905878E-03
 -0.12582706E-02  0.60374227E-04 -0.35208644E-02
 -0.13693349E-02 -0.62688546E-02  0.13634651E-02
  0.12843973E-02  0.58797445E-02  0.82905954E-02
 -0.54433735E-03 -0.33823450E-04 -0.17470276E-02
  0.18665029E-02  0.11027807E-02  0.14598327E-02
 -0.10526337E-02  0.21912537E-02  0.19502331E-02
 -0.11021583E-02 -0.48830820E-02 -0.11555714E-02
 -0.40634163E-02  0.98281591E-03  0.41280563E-02
  0.31124411E-03 -0.17067260E-02  0.66809963E-03
 -0.38460768E-02 -0.21010538E-02  0.29862282E-02
 -0.15044433E-03 -0.53991017E-02 -0.65154585E-02
  0.31580974E-02  0.45659407E-02 -0.11901934E-02
  0.27445391E-03 -0.35947542E-02 -0.40418154E-02
  0.77193323E-03 -0.28504282E-02 -0.37273013E-03
  0.53156977E-03  0.14676915E-02  0.37729822E-02
 -0.26799997E-02 -0.17400594E-02 -0.56498677E-03
  0.20825866E-02 -0.22818809E-02  0.16398530E-02
 -0.77951854E-03 -0.48171259E-03  0.10545297E-02
  0.47187371E-02 -0.12423490E-02  0.20749504E-02
  0.19552619E-02 -0.22490334E-02 -0.13220922E-02
 -0.42381242E-02  0.19473480E-02 -0.53886290E-02
 -0.21563262E-02 -0.17350290E-02 -0.57353204E-03
 -0.49549924E-02 -0.37612316E-03  0.61819448E-03
  0.17874053E-02  0.40205277E-02  0.57001048E-03
  0.24742953E-02 -0.63846220E-03 -0.16582775E-02
 -0.51624281E-03 -0.11486439E-02 -0.48496311E-02
  0.10735971E-02  0.24883324E-02 -0.12993689E-02
 -0.20794378E-02 -0.31171449E-03  0.17372813E-02
 -0.46985669E-02 -0.41014346E-02  0.25911713E-02
  0.14649833E-02 -0.19558962E-02 -0.16693623E-02
 -0.41767123E-02  0.11769668E-02 -0.31562314E-02
 -0.36481573E-02 -0.16139299E-02  0.20350662E-02
 -0.25889687E-02  0.17675870E-03  0.48511112E-03
  0.11511312E-03 -0.61070429E-02 -0.51719952E-02
 -0.24632191E-02  0.18042896E-03 -0.22549423E-04
  0.41410557E-02  0.53658092E-02  0.41317468E-03
  0.83897937E-03  0.19607911E-02 -0.46994926E-03
  0.11047070E-02 -0.13849881E-03  0.16133872E-02
 -0.32078883E-02  0.21275891E-02  0.15197196E-02
 -0.54024787E-02  0.56484952E-02 -0.97170345E-03
 -0.29665154E-02 -0.13268101E-02  0.18755198E-02
  0.11649184E-02  0.11872804E-02  0.13666689E-02
 -0.29779985E-02  0.67022605E-02  0.37358964E-02
 -0.27181440E-02 -0.58333695E-02 -0.73993260E-03
 -0.42425024E-02 -0.10427978E-02 -0.31681041E-03
 -0.12663243E-02  0.33838357E-02 -0.82729615E-03
  0.23690752E-02  0.12756273E-02  0.10873769E-03
  0.19087525E-02  0.18502999E-02  0.53548817E-02
 -0.42688992E-02 -0.67512515E-03  0.78517818E-03
  0.56888497E-03  0.10080985E-02 -0.37669332E-02
  0.40177454E-02  0.35742075E-03 -0.77785793E-04
  0.30662403E-02  0.21365849E-02 -0.58236022E-03
  0.48511202E-02 -0.24953964E-02 -0.24597504E-02
 -0.11157045E-02 -0.28276345E-02 -0.32023404E-03
  0.19567949E-03  0.17061683E-02 -0.16141548E-02
 -0.38281312E-03  0.17677164E-03 -0.74683107E-03
 -0.52068425E-03 -0.31754309E-02  0.14271375E-02
  0.52922766E-03  0.17002839E-02 -0.69399955E-03
  0.36531630E-02  0.46444800E-03  0.84222315E-04
 -0.79285475E-03  0.19219332E-02  0.10689747E-02
  0.39978845E-02  0.32480837E-02 -0.52777297E-03
 -0.25188892E-02  0.11472508E-02 -0.16023903E-02
  0.32700529E-02 -0.77856435E-03  0.12995883E-02
 -0.33244187E-03 -0.46910347E-02  0.57160385E-03
 -0.47067169E-03  0.71918662E-04 -0.49206664E-02
 -0.36015362E-03 -0.15307598E-02 -0.19237439E-02
  0.15773984E-02  0.50735664E-02 -0.22451522E-02
  0.31054310E-03  0.58509918E-03 -0.19201749E-02
  0.24047775E-02 -0.18900808E-02  0.35196385E-03
 -0.29644341E-03  0.34906051E-03 -0.56996368E-03
 -0.29767513E-02  0.44312327E-03  0.40974199E-04
 -0.11492593E-02  0.27542593E-03 -0.11498726E-02
  0.19978681E-02  0.12822864E-02 -0.29070384E-02
  0.61752831E-03 -0.18274695E-02 -0.10928600E-02
 -0.48183405E-03  0.36863625E-02 -0.18899017E-03
 -0.31518124E-02 -0.12555925E-02  0.28319325E-02
  0.14420820E-02  0.13950025E-02 -0.24735983E-02
  0.20027414E-02 -0.48907430E-02 -0.23534743E-02
 -0.26204924E-02 -0.25678419E-02  0.46121517E-02
  0.32413921E-02  0.30005864E-03 -0.16391330E-02
 -0.34448982E-02  0.41650465E-02  0.47720098E-02
 -0.42016896E-03 -0.14046252E-02 -0.29412067E-02
 -0.56884536E-02 -0.28033090E-02  0.35503020E-03
  0.10494217E-02  0.30002621E-02  0.10975725E-02
  0.20909131E-02  0.99081682E-03 -0.73002734E-03
  0.16751426E-02 -0.18479503E-02 -0.66109455E-04
 -0.24245706E-02 -0.16086170E-02  0.48919501E-03
 -0.64474210E-03 -0.15287295E-02 -0.35167290E-03
 -0.37639550E-02 -0.38292476E-02  0.27364514E-02
  0.29989555E-02  0.48738293E-02  0.32727458E-02
  0.13060800E-03  0.18162871E-03 -0.11366467E-02
 -0.58174774E-02 -0.28317830E-02  0.31331424E-02
  0.20632180E-02  0.44812062E-02  0.13877281E-02
 -0.80201422E-03  0.73467201E-03 -0.11813344E-02
  0.19445261E-02  0.11228737E-02 -0.29644631E-03
  0.13976901E-02  0.18945796E-02 -0.52695096E-04
 -0.10154498E-02  0.34420634E-02 -0.96711520E-03
  0.10290838E-03  0.11121595E-03  0.27377005E-02
  0.17594216E-02  0.27176877E-02  0.77051717E-03
  0.14461014E-02 -0.26764815E-03 -0.60268532E-04
 -0.34476921E-02  0.50476654E-04  0.22918500E-02
 -0.10937635E-02 -0.22390546E-02  0.98424451E-03
  0.60206765E-04  0.11398532E-02  0.25284925E-02
 -0.35156238E-03 -0.14479676E-02  0.28120267E-02
  0.55716494E-03  0.90620720E-03 -0.14773193E-02
  0.12029572E-03  0.21036055E-02  0.14922816E-02
 -0.11194318E-02 -0.19745417E-03 -0.46174844E-02
 -0.69569346E-03 -0.10667016E-02  0.31228155E-02
  0.38820339E-02 -0.30167154E-02  0.14838601E-03
  0.99196303E-03  0.12355976E-03 -0.20478059E-02
  0.17993679E-02 -0.19247035E-02  0.10700691E-02
 -0.12790719E-02  0.24088247E-02  0.11467703E-03
 -0.25211207E-03 -0.43147762E-02 -0.13424960E-02
  0.52119123E-02  0.12059498E-02 -0.88614521E-03
 -0.23885860E-02  0.23566673E-02 -0.43072958E-03
  0.22614318E-02  0.13146287E-02  0.31984948E-02
  0.56547221E-03  0.26799622E-02  0.38121448E-02
 -0.24129284E-03  0.19778033E-02 -0.37726595E-02
  0.20087968E-02 -0.38269846E-02 -0.21751045E-02
  0.44746439E-02  0.56919401E-02 -0.29794167E-02
 -0.32866742E-02  0.34498208E-02  0.36007496E-02
  0.29942545E-02  0.20606440E-02 -0.16936092E-03
  0.73640721E-03 -0.58646026E-03  0.21567788E-02
 -0.70429890E-03  0.59415787E-02  0.21896776E-02
 -0.81422266E-03  0.62247426E-02 -0.34447391E-03
  0.32628012E-02 -0.53663705E-03  0.10058774E-02
  0.13794991E-02  0.49520663E-02  0.17693910E-02
  0.11084008E-02 -0.35067557E-02 -0.11090534E-02
 -0.10231444E-02 -0.46699874E-02 -0.47565068E-03
  0.35546559E-02  0.38070349E-02  0.43678084E-02
  0.14977659E-02  0.96764938E-03  0.31156586E-02
 -0.55242139E-02  0.17738293E-02  0.80108388E-03
  0.33908738E-02 -0.43850499E-02 -0.12513024E-02
  0.58453922E-02 -0.29012394E-02  0.71579062E-03
 -0.14357178E-02 -0.28325047E-02 -0.37248613E-02
 -0.18720505E-02 -0.91313193E-03 -0.40732412E-02
  0.92595988E-04  0.67025272E-02 -0.66625638E-03
  0.19940203E-02 -0.32604984E-02  0.46150032E-02
  0.63214718E-02  0.69045186E-02  0.97673166E-02
  0.59096646E-02  0.14341591E-02 -0.36403693E-02
 -0.75179895E-03 -0.84142504E-02  0.15534044E-02
 -0.42054251E-02  0.41725603E-02  0.49984691E-02
  0.16268976E-02 -0.44293189E-02  0.71515741E-03
  0.90740667E-03 -0.38337354E-02 -0.45010037E-02
  0.18618895E-02  0.93630872E-03 -0.22508029E-02
  0.28481415E-03  0.11907458E-04 -0.76508159E-03
  0.57842336E-03  0.39684055E-02 -0.27145093E-02
 -0.26871646E-02 -0.21825890E-03 -0.52989567E-03
  0.34506514E-02  0.30682033E-03  0.34199707E-04
 -0.22355052E-02  0.15286108E-02 -0.24652576E-02
  0.74955977E-02  0.18663243E-03 -0.76347820E-03
  0.10299417E-02 -0.28980822E-02  0.26869913E-02
  0.78784135E-03  0.16286122E-02 -0.81132508E-02
 -0.80357089E-02 -0.98889991E-02  0.15422543E-02
 -0.44317768E-02 -0.22548081E-02 -0.50232142E-03
  0.68870125E-03  0.39836992E-02 -0.29886304E-03
 -0.11999840E-01 -0.55560007E-02 -0.52648094E-02
 -0.14334687E-03 -0.63672783E-02 -0.54459611E-02
 -0.36016289E-02 -0.86061136E-03 -0.14077540E-02
  0.28135622E-02  0.10522452E-03  0.25214226E-02
 -0.63108664E-02 -0.16456308E-02  0.14833929E-02
 -0.28319196E-03  0.14318816E-02  0.28202341E-02
  0.48586011E-03  0.68393921E-03  0.68017327E-03
  0.40148631E-02 -0.64404395E-02 -0.45775380E-02
  0.52503811E-02  0.26399838E-02 -0.30026384E-03
 -0.45922555E-03  0.18782845E-02 -0.46157649E-02
 -0.36599934E-03 -0.25085865E-02  0.41946988E-02
 -0.90545164E-03 -0.41839707E-03 -0.30582660E-02
 -0.23646957E-03  0.15953236E-02 -0.19138701E-02
  0.89319110E-02 -0.14863111E-03  0.86053408E-03
 -0.59076035E-03 -0.35373028E-03  0.53024435E-02
  0.18379115E-02  0.24730026E-02  0.23574277E-02
 -0.24241245E-02  0.37526798E-03 -0.13856053E-02
 -0.15352986E-02  0.39896517E-02 -0.46863142E-03
  0.14344917E-02 -0.40849870E-02 -0.14353088E-02
 -0.83857900E-04 -0.14888677E-02 -0.15490360E-02
 -0.13208581E-02  0.18322071E-03  0.18271862E-02
  0.43831093E-02 -0.11429352E-02 -0.40038570E-03
 -0.63527673E-03  0.95446329E-03 -0.30774578E-03
  0.21973336E-02  0.13656246E-02 -0.19503452E-02
  0.10144076E-01  0.19008236E-02  0.41053100E-02
 -0.26331459E-02  0.17910935E-02  0.68032075E-02
 -0.77266613E-03  0.22030617E-02  0.21475783E-02
  0.59148196E-02  0.13606400E-02  0.88090186E-03
  0.11501946E-02  0.27211189E-02 -0.11844732E-02
  0.31527491E-02 -0.41491216E-02  0.27011606E-02
  0.16426469E-02  0.21585287E-02  0.25892692E-02
 -0.10557288E-02  0.21186639E-02 -0.43451754E-02
  0.12909454E-02  0.75303507E-02  0.69533246E-03
 -0.81753563E-02  0.94047218E-03  0.30265405E-02
  0.20541958E-02 -0.11950412E-02 -0.74923370E-03
 -0.53073932E-02  0.18788385E-02  0.29930450E-02
 -0.99507534E-02 -0.14333065E-02  0.12415732E-02
  0.13034518E-02 -0.51849543E-03  0.40804277E-02
  0.28706635E-02 -0.44841159E-02 -0.61325519E-02
 -0.93953101E-04  0.38610151E-02  0.82291206E-03
 -0.27038793E-02 -0.53371604E-02 -0.77819805E-04
  0.50875410E-02 -0.66062481E-02 -0.79336641E-02
 -0.72187953E-03  0.32896132E-02  0.22304941E-02
  0.36098631E-02 -0.20094986E-02 -0.50590707E-02
 -0.47744319E-02  0.46936126E-02  0.58630900E-02