Ga150 N150                              
   1.00000000000000     
     8.0482965387795637  -13.9400700962268846   -0.0000003151961981
     8.0482906673966994   13.9400667053525016   -0.0000002254193136
    -0.0000005268402214    0.0000000487389220   15.7345155301750257
   Ga   N 
   150   150
Direct
  0.0677516534533751  0.1303059829588279  0.3256413428386202
  0.0699453752555663  0.1345734061502983  0.6606629008011953
  0.0644645143830205  0.1328970785965553  0.9952828299721987
  0.0640184879989551  0.3320185767841312  0.3375650253800939
  0.0685466830223477  0.3257552534897026  0.6643862473758317
  0.0673922835949157  0.3313542947527391  0.9992202721056523
  0.0588472915516790  0.5259412376503497  0.3379637132801680
  0.0643450883874990  0.5273814790993340  0.6685237186427795
  0.0737574484575602  0.5406487292202753  0.9975524080103813
  0.0703497493796243  0.7260897357129203  0.3212420920123673
  0.0748608411125356  0.7337636254338049  0.6651378081598355
  0.0530942238731371  0.7275328510640454  0.0041919477396067
  0.0774973937000794  0.9332820791615425  0.3357976266787854
  0.0651125258590927  0.9292273525352983  0.6693150363548320
  0.0680861404930738  0.9318873274861915  0.9971633998435138
  0.2743825972231484  0.1416060484726260  0.3311181533872922
  0.2675501773337715  0.1334054880671661  0.6699386520485980
  0.2643838800895958  0.1233534186259135  0.9956242008324407
  0.2575152863657987  0.3218181207318221  0.3152686498775694
  0.2698688004177678  0.3247414457811134  0.6620188752016073
  0.2652207969072523  0.3328998820164579  0.9975466965979464
  0.2639421837366964  0.5428134847975652  0.3291148567988783
  0.2539279959387739  0.5093626375109280  0.6793792889176470
  0.2708945196782113  0.5284468502608801  0.0026325039676592
  0.2698477524448474  0.7383877982643928  0.3287975487782472
  0.2673031028433044  0.7260890396589474  0.6659872943685434
  0.2613441639857271  0.7237409310571385  0.9983771924819399
  0.2731608398808366  0.9357473709477219  0.3283670456278847
  0.2655099631323930  0.9250644135216909  0.6665812400881510
  0.2690843989939570  0.9322428185838254  0.0011108816492354
  0.4705310359341462  0.1436642989742001  0.3248828068055321
  0.4665069535196664  0.1329998762068486  0.6593934925921521
  0.4757319244353763  0.1340359684276274  0.9963736450659965
  0.3256004930178814  0.4588015165228206  0.4386431365705417
  0.4662082573893958  0.3292202149071916  0.6559637320414913
  0.4656686035341960  0.3292900060244189  0.0045049992656855
  0.4728580257334306  0.5579484227460245  0.3189033328048128
  0.4716367180596688  0.5240556207086641  0.6778331070562521
  0.4641421527485945  0.5308827719681168  0.0042481134396354
  0.4640170931258050  0.7427175161837364  0.3391511874496140
  0.4709359523745873  0.7330775589497496  0.6682883122120287
  0.4696582004108126  0.7282356549470309  0.9965177969628185
  0.4680918161309480  0.9427504284069212  0.3305341861521895
  0.4632152540469170  0.9302902801917923  0.6667022019793842
  0.4631306428875417  0.9249878435196118  0.9968133647898451
  0.6633032396819309  0.1290493566459315  0.3341076457316993
  0.6655336576443459  0.1341520950330123  0.6630068098781741
  0.6700376514400955  0.1312100325059692  0.9969998527061084
  0.6630980812691422  0.3346877396420778  0.3352955666919655
  0.6745612301551380  0.3358406947961806  0.6638046886886729
  0.6693802517724603  0.3313770478402963  0.9977532393121484
  0.6596148215574648  0.5349750982444945  0.3245873594049345
  0.6629777601588659  0.5248868342972843  0.6643664733488909
  0.6643593529396781  0.5254717259304459  0.0006956452174004
  0.6729837522747720  0.7402992051313465  0.3308534970542908
  0.6653192166871638  0.7229253019553739  0.6647947024693573
  0.6656708684819302  0.7273963026259804  0.9959292471879162
  0.6649000824754409  0.9337224551815237  0.3263123597262454
  0.6689694398461378  0.9375471734845638  0.6769951958302467
  0.6732374673102416  0.9276533530152699  0.9961608415315739
  0.8675856652956313  0.1296924536981211  0.3330590405342632
  0.8671396781761675  0.1331296746522919  0.6639244161625188
  0.8624734223696257  0.1329911685607072  0.9982760787479535
  0.8597207010293623  0.3273060798086134  0.3225976654575073
  0.8742369436918319  0.3316458920945767  0.6685086110015852
  0.8704082580969568  0.3327022586295201  0.0090238363381796
  0.8572534806101365  0.5258952739802139  0.3387998369019153
  0.8641745734888548  0.5275735383750907  0.6601135225388646
  0.8594568669178925  0.5289839348578147  0.9963522168654363
  0.8754648565230846  0.7338396086249251  0.3364209688227870
  0.8551386077245331  0.7192496629557122  0.6641536613750419
  0.8557120664306324  0.7244568822763610  0.9956735158480772
  0.8749740619752294  0.9321178089494953  0.3345140772971657
  0.8587308135076891  0.9291805322915412  0.6682006035183574
  0.8746472270373868  0.9348147448232436  0.9963083343867093
  0.1374504104455705  0.0612480744367455  0.1593086164808500
  0.1332110392260399  0.0649186267118023  0.4999325738766276
  0.1328407319101510  0.0708694714902064  0.8320615267626206
  0.1310247658552095  0.2608115072291015  0.1646088054032965
  0.1324116688754529  0.2654040585783351  0.4950319458025604
  0.1289479565350360  0.2660445296071409  0.8274989761698665
  0.1298991202366030  0.4632390968432504  0.1690816698659241
  0.1344649143624359  0.4619164254081998  0.5009202049561724
  0.1322797650640358  0.4657094701222297  0.8351380694314302
  0.1305118614190510  0.6617062889725187  0.1668491159895894
  0.1262375467497777  0.6619602176056490  0.4994335760889207
  0.1371697531309802  0.6714646612303110  0.8293804971719595
  0.1359356888965434  0.8674693818934105  0.1662464877865164
  0.1421667423157043  0.8690539859935560  0.5024567531263834
  0.1404261225054058  0.8687582263212371  0.8443253367740072
  0.3441181763732953  0.0719288088028941  0.1637232126546441
  0.3375548190741738  0.0707631403267364  0.4993010584398382
  0.3379631645752909  0.0713391762663104  0.8244778132505571
  0.3375261963192938  0.2676554140484367  0.1679653452325897
  0.3302848863122293  0.2644303780713891  0.4928438737058546
  0.3374581096712100  0.2711898802649810  0.8398800455456662
  0.3286781534703274  0.4654938961003758  0.1697012137752587
  0.3856949217448868  0.5769660192758227  0.5577583957557253
  0.3371658876374621  0.4623115313270461  0.8368626859440569
  0.3354163085757426  0.6719631032014314  0.1631128618754646
  0.3289706843591934  0.6739101786195686  0.4954449380942600
  0.3329779118812789  0.6601697040858169  0.8372083616488802
  0.3267313660531385  0.8641045943066537  0.1596790468756792
  0.3343229415279600  0.8683979330845156  0.4980482730752318
  0.3337002348335348  0.8643963605449438  0.8314675606135835
  0.5354287133501713  0.0596516302814861  0.1680286380946091
  0.5365974014966151  0.0687522373259171  0.4954085567089132
  0.5346761975888820  0.0652450974106610  0.8283449614039265
  0.5396724608614444  0.2711759945214725  0.1686157158879728
  0.5254374304728354  0.2643031683455093  0.4855712602559749
  0.5414958306259694  0.2671084340036056  0.8289815373418549
  0.5271468403101286  0.4673062245255886  0.1713484963103458
  0.5278956172722254  0.4712163829691682  0.4819353310049248
  0.5237468787956711  0.4551798564631573  0.8408589510738044
  0.5398721415438872  0.6810484490990228  0.1635171948754285
  0.5512581800818199  0.6885605960211343  0.4925718901853063
  0.5377522492928812  0.6678323188238204  0.8308034212973827
  0.5350584069339014  0.8677530232820119  0.1683080069938720
  0.5371885855879329  0.8714376972569504  0.5054921399429907
  0.5307081873471209  0.8621569080377003  0.8386860049581412
  0.7319833579194392  0.0688780778392324  0.1601839257067503
  0.7324902688375258  0.0621337501289400  0.5011029537758213
  0.7339229371461534  0.0666506079484399  0.8362741676788994
  0.7301935125915157  0.2636625229578144  0.1718678488286169
  0.7376840825060882  0.2676716546361722  0.5021086549817754
  0.7351210264577047  0.2687979292929930  0.8353591043973780
  0.7287152284230659  0.4609597540832580  0.1631256868718974
  0.7226757561049345  0.4609370623657966  0.4893359259350827
  0.7388151506217275  0.4729538636548453  0.8257138000375550
  0.7415949317030782  0.6729317679088884  0.1613295072970171
  0.7261661674820857  0.6603653773360810  0.4977153506470740
  0.7264827467062153  0.6560492632505862  0.8308439758263553
  0.7445179290045405  0.8700990684437278  0.1662650139110040
  0.7380839829518783  0.8651033790852736  0.5021035199712570
  0.7378254673586362  0.8604397690621600  0.8331656292088254
  0.9326602000535125  0.0642188368739412  0.1608444079500486
  0.9364611967765694  0.0673529172143825  0.4991848716434737
  0.9327935012382601  0.0694261135457204  0.8286576771887357
  0.9365799836058033  0.2592504908060426  0.1723953881493272
  0.9312141007801208  0.2645364863273086  0.5042292341939344
  0.9350931538365842  0.2666191505106245  0.8354262374881313
  0.9286856290455969  0.4614391442270790  0.1657149597446327
  0.9291148478929295  0.4586586491465467  0.5038760856420138
  0.9396043601545601  0.4714259596754826  0.8414179567745751
  0.9280709186106098  0.6612859519212715  0.1674149049798512
  0.9383043793492104  0.6646531776234009  0.5005461732831344
  0.9313762022164773  0.6656465278562845  0.8286568094088744
  0.9400456412515026  0.8647743232872203  0.1645610096748695
  0.9392390139916490  0.8592422416678853  0.5070696239993415
  0.9379818694367523  0.8638688086324929  0.8308019163476191
  0.0663346647445975  0.1309003194862915  0.1223095830894837
  0.0668865994578115  0.1316270024811027  0.4570403638098761
  0.0657181208592398  0.1357660811900336  0.7859465347317336
  0.0681041771159433  0.3304986229895558  0.1279072350444709
  0.0657720647682692  0.3338313517381253  0.4606687270797560
  0.0664556336124468  0.3370505324068911  0.7883131633808568
  0.0686362239448447  0.5315377642062005  0.1274586773439084
  0.0628107632997275  0.5292274182046615  0.4618075747839084
  0.0692606920259808  0.5347535046778511  0.7957280728760461
  0.0651911472359911  0.7297896119440416  0.1274088702803685
  0.0713299804337171  0.7365673252202593  0.4535599554035057
  0.0684257267844417  0.7364005529365817  0.7925629676900325
  0.0691357211561572  0.9291759167665604  0.1234147069754038
  0.0688194065388356  0.9288811885132283  0.4607223297749303
  0.0740875966316012  0.9348016597254065  0.7945966723899875
  0.2712358943865911  0.1309965369966939  0.1207917662063321
  0.2700234370789013  0.1314052244970713  0.4536207853984407
  0.2687540627376796  0.1383824071223939  0.7959833043553222
  0.2680248799825536  0.3359188766892536  0.1211655709355657
  0.2583631156836926  0.3273426942430970  0.4464102491849679
  0.2664412065332746  0.3330332019696433  0.7914352451025120
  0.2640920721911515  0.5304333081893756  0.1265003567622653
  0.2649311744726370  0.5470487512134355  0.4573690681657545
  0.2652101448701825  0.5281805075597060  0.7983286977157200
  0.2629868906685117  0.7317251518579074  0.1232907600386576
  0.2603726062319544  0.7344369558073439  0.4553990514097766
  0.2724651434522809  0.7285231812507938  0.7897842061261899
  0.2687403128261932  0.9382096952479384  0.1245834638916262
  0.2738578891835074  0.9372569072526061  0.4575953281186598
  0.2695493085958527  0.9324760038606217  0.7909370455208293
  0.4792457762964107  0.1368541207995352  0.1253818256607616
  0.4669216644018261  0.1323417563796022  0.4524979471470599
  0.4739798855460243  0.1338270880902565  0.7873108492135917
  0.4706162893598220  0.3330505177090488  0.1250923306343264
  0.4632737027700364  0.3320542576520279  0.4575045949589696
  0.4655692961130946  0.3309634797463861  0.7855952798442282
  0.4616516611520217  0.5374324006201172  0.1281606952113912
  0.4591006629233433  0.5395961668618235  0.4549469737870514
  0.4704691034134080  0.5310129430902448  0.8003104316894100
  0.4674990777362509  0.7324601100164804  0.1265300963501885
  0.4696118955286663  0.7395566601918685  0.4670858662356143
  0.4647902340073909  0.7278636569152251  0.7890827936554182
  0.4616054101689073  0.9276518274641420  0.1242845036848176
  0.4665169853362958  0.9304400616330404  0.4569388150064575
  0.4681082625086902  0.9303654694129645  0.7917321278096996
  0.6669017852759770  0.1328102414934642  0.1226629175830055
  0.6669108464575938  0.1297396850237181  0.4593310028012799
  0.6670741189425986  0.1319335251503742  0.7880114848930174
  0.6709297727476897  0.3316900035869157  0.1237561250006666
  0.6625655091791174  0.3260557954729682  0.4586947621890513
  0.6735343924268455  0.3366801898693204  0.7926716837313007
  0.6657186628429628  0.5335539662231081  0.1277922923985531
  0.6626593343034473  0.5346744922130706  0.4501397706491213
  0.6569682828270444  0.5254020068495796  0.7924237982794677
  0.6713676878211272  0.7382977910604744  0.1186824466331660
  0.6734897024924931  0.7359049503521812  0.4572655579854584
  0.6681911517876065  0.7302315075037312  0.7913520940004101
  0.6694666474666762  0.9356192370598984  0.1235869874918751
  0.6678802188029134  0.9276484659383184  0.4546817895120392
  0.6683450106489173  0.9302469471823770  0.7984483848150498
  0.8658128014959995  0.1306884286383814  0.1265014744063164
  0.8656373095075829  0.1342504273421923  0.4586580423822421
  0.8671423745793778  0.1373989995129162  0.7892887493999270
  0.8686231080682318  0.3291374906008177  0.1315332328974781
  0.8653880462180167  0.3313435366482648  0.4555317235815931
  0.8691154004255034  0.3346876970748980  0.7952579186977753
  0.8657825599056053  0.5284525867644958  0.1209906105735681
  0.8639879312005365  0.5286786207574975  0.4638930617452002
  0.8695240171841041  0.5339386092150434  0.7860464691669956
  0.8702999495240638  0.7317155665239367  0.1183721090544685
  0.8667084580375299  0.7291335014454957  0.4610499967070036
  0.8611173115273055  0.7265712081851871  0.7907827393265522
  0.8732559665514545  0.9329199964059703  0.1219727121013423
  0.8741931288771817  0.9313292336967850  0.4629956463606287
  0.8703809810806578  0.9331518778413269  0.7926524234604975
  0.1348508572679380  0.0594948561783230  0.2874284960754189
  0.1320438443387250  0.0598986629129606  0.6269374743511857
  0.1309715007851195  0.0653221217900360  0.9580769215331929
  0.1272289200607632  0.2637193299527305  0.2895760537931297
  0.1393281335857662  0.2664881425542530  0.6218603079827990
  0.1330924264494324  0.2653575028332819  0.9507577767446705
  0.1322895813037396  0.4681812891156387  0.2980019060927708
  0.1296717525725335  0.4617663827781880  0.6283754308988473
  0.1378707148928446  0.4666231237333403  0.9594818865208181
  0.1344312026289136  0.6569069301586312  0.2927465997858090
  0.1333950018337388  0.6634455988451090  0.6276928423620790
  0.1313751823035235  0.6713534791759808  0.9548049223790880
  0.1385316229378376  0.8627613969077867  0.2887750393364503
  0.1332709450963430  0.8657228633211751  0.6238498530790711
  0.1336249075811996  0.8628030398041597  0.9677449962410012
  0.3375578464378846  0.0690396213747861  0.2893398378398804
  0.3312764962157875  0.0638097720129541  0.6251516439639789
  0.3398962948299375  0.0644759539147084  0.9503689851420172
  0.3334559373788597  0.2676864648008601  0.2852784566840647
  0.3348333286799842  0.2649987197277011  0.6166360063470291
  0.3338744080994792  0.2638054503287328  0.9632765004287426
  0.3256648349815731  0.4667185946827749  0.3036057702900270
  0.3335513994199424  0.4602738306546361  0.6305674236559282
  0.3352934050665191  0.4644690208287768  0.9595354545667790
  0.3350170320653068  0.6688632679306550  0.2893654723234971
  0.3332312880649617  0.6534974720662015  0.6230468483996867
  0.3368370770108679  0.6666432257558992  0.9634996393693562
  0.3357049080127854  0.8684606862679517  0.2839084131405023
  0.3327791055553080  0.8590469497434886  0.6225161112339909
  0.3288415967225656  0.8592670999132774  0.9575691651414238
  0.5345098917262050  0.0713114176898226  0.2913949791154846
  0.5337463241971062  0.0657606961372237  0.6224595040471725
  0.5344945290426321  0.0596165468009369  0.9549975317262962
  0.5402424873059340  0.2720835800758010  0.2863340794032369
  0.5386293391602887  0.2644132873311644  0.6251032102455472
  0.5386172483357737  0.2694541511614795  0.9582949697690010
  0.5279152732214102  0.4787020706339884  0.2944717215726567
  0.5317174568120271  0.4664519472938907  0.6162356397795745
  0.5268473879977698  0.4616677709984404  0.9638742245840834
  0.5408553112556040  0.6896158166848765  0.2919342833892138
  0.5302065395211849  0.6556383045997827  0.6231218491721786
  0.5343003737390907  0.6623157066235733  0.9561997149536561
  0.5337876197793779  0.8739727829781100  0.2957941805128899
  0.5374266589061737  0.8695984698873224  0.6322431627318338
  0.5341080446055191  0.8606762897473862  0.9617691480887256
  0.7368438160653994  0.0712044074530783  0.2870358111818058
  0.7341095209697949  0.0684733884011775  0.6291380549867299
  0.7322246383183333  0.0603101021781495  0.9576838684066177
  0.7246625130696737  0.2633046613879991  0.2945410950240597
  0.7400882107993181  0.2692300709879547  0.6264320903097890
  0.7365436515769059  0.2635369534857832  0.9610434415498899
  0.7293975308311916  0.4680879813214843  0.2922659413176408
  0.7343224675655826  0.4651315639133954  0.6193751952799105
  0.7293943421162696  0.4627262375301129  0.9533073670176484
  0.7381717096740178  0.6746731664538009  0.2896626848104703
  0.7263542044871718  0.6561511484564118  0.6224853732752208
  0.7259791018630459  0.6570174418725270  0.9559326727696218
  0.7418693596944197  0.8742878101740406  0.2923063824527780
  0.7288967883854391  0.8613752137780196  0.6277525596864793
  0.7379912209367870  0.8598218542523254  0.9555696495286512
  0.9377902898718615  0.0660371262398395  0.2888254354304403
  0.9324634722838105  0.0668317570012675  0.6263974975040126
  0.9321510114937478  0.0665154960782430  0.9548141521588051
  0.9344668807554974  0.2653158506014849  0.2962163726077114
  0.9381177419616803  0.2642809397970659  0.6283587620403615
  0.9332978310450745  0.2655932395748690  0.9616387927955045
  0.9263491833844847  0.4639876592100383  0.2900907911223725
  0.9349552096548009  0.4629231131615413  0.6273450049635920
  0.9371994049962966  0.4691081883042619  0.9657870814496499
  0.9285017782726610  0.6601367544878488  0.2921076028961378
  0.9376262717477892  0.6654582178986070  0.6267868021278489
  0.9264913168629675  0.6620666848078347  0.9536533441204670
  0.9459906358743854  0.8667906843426545  0.2919323945628211
  0.9274091795647867  0.8609562550708294  0.6313384179427063
  0.9329435956732290  0.8593186415806893  0.9567686975419080
 
  0.26653624E-02 -0.27893264E-02  0.21684938E-04
 -0.15446514E-02  0.79361518E-03 -0.43044564E-02
  0.49676270E-03  0.54466448E-02 -0.23387959E-03
 -0.61756038E-03 -0.15391239E-02 -0.27263044E-03
  0.80894657E-03  0.46796543E-02 -0.33343289E-03
  0.76386437E-03 -0.22005062E-02  0.43290216E-03
 -0.30537803E-02  0.95474992E-04  0.17361366E-02
 -0.39342623E-04 -0.79853156E-03 -0.61038326E-03
 -0.19379726E-03 -0.23808954E-02 -0.86301103E-03
 -0.54500027E-03  0.11751515E-02  0.29293784E-02
 -0.40726299E-03  0.12426511E-02  0.14449157E-02
 -0.16370527E-02  0.50089167E-03  0.94678792E-03
  0.19526291E-02  0.19882068E-02  0.24220209E-02
 -0.16810756E-02  0.24804539E-02 -0.89579382E-03
  0.25009363E-02 -0.24022877E-03  0.14900667E-02
 -0.92797619E-03 -0.11866463E-02  0.35908228E-02
 -0.69292405E-03  0.14031181E-02 -0.54909679E-03
 -0.11750484E-02  0.10291645E-02  0.23707681E-02
  0.40260458E-03 -0.28896056E-02 -0.27851573E-03
 -0.19195089E-02  0.14745892E-02  0.48531916E-02
  0.36955312E-02  0.93920349E-03  0.50219073E-03
 -0.16117795E-03  0.36985320E-02 -0.52120169E-02
  0.54981511E-03 -0.85067911E-03 -0.53186952E-04
  0.24977176E-02 -0.63726078E-02  0.43560004E-02
 -0.32905680E-03  0.18357062E-02  0.12874482E-02
 -0.34682508E-03  0.16183524E-02 -0.20824165E-04
 -0.12921594E-02  0.93582083E-04 -0.16919546E-02
 -0.10162571E-02  0.26306045E-02 -0.21854876E-02
  0.13275516E-02  0.12305571E-02  0.30286299E-03
  0.13746392E-02 -0.18626643E-02  0.97778745E-03
 -0.32295878E-02  0.56590228E-03  0.11428248E-03
 -0.78674198E-03 -0.11437363E-02 -0.37120949E-02
 -0.18778665E-02 -0.35337581E-02  0.65227259E-03
 -0.59546552E-03  0.56893368E-02  0.58571832E-02
 -0.17684780E-02 -0.40072406E-02  0.50271674E-04
 -0.58724974E-03  0.30675091E-02  0.50256505E-03
  0.37947050E-03  0.92643581E-03  0.31479167E-03
 -0.76773739E-03 -0.22506574E-02  0.55260944E-04
 -0.35379326E-02 -0.20377198E-02  0.39392343E-02
  0.18460821E-02 -0.19116426E-02 -0.18787764E-02
 -0.19653124E-02 -0.10097041E-02 -0.11711025E-02
  0.51522711E-03 -0.56779326E-02 -0.17645626E-02
  0.32298736E-02  0.18170579E-02  0.15942864E-02
 -0.20552648E-02 -0.50319451E-02 -0.20218809E-02
  0.27148544E-03 -0.39405412E-02 -0.59913546E-03
  0.25224810E-02  0.21151514E-02  0.16093950E-03
 -0.14191676E-02 -0.45717383E-03  0.27952709E-02
  0.21690719E-03 -0.10334463E-02  0.35977419E-02
 -0.78778333E-03  0.14511873E-02  0.10166718E-02
  0.22036098E-02 -0.18792842E-02  0.11790488E-02
  0.35623615E-03 -0.43515345E-03 -0.12693267E-02
 -0.34745736E-02  0.70879880E-03 -0.44466430E-02
  0.99459748E-03 -0.21031058E-02  0.22645422E-02
 -0.39056885E-02  0.46056707E-03 -0.37297999E-04
  0.14012092E-02  0.10021767E-02 -0.10484329E-02
 -0.13197063E-04 -0.72759442E-03 -0.38602760E-02
 -0.12117431E-02  0.51257905E-03  0.15283600E-02
  0.75613476E-03  0.16169310E-02  0.74011500E-03
 -0.11051683E-02  0.91484388E-03  0.44981708E-03
 -0.38389828E-02 -0.20092163E-02  0.15320962E-02
 -0.44394118E-03 -0.18713980E-02 -0.23140792E-02
 -0.35479304E-02  0.82962686E-03 -0.68309939E-03
  0.10270571E-02 -0.78717869E-03 -0.14987346E-02
  0.11259352E-02  0.52575085E-03  0.41712829E-02
  0.67046607E-03 -0.49812719E-02 -0.55600154E-02
  0.80525881E-03 -0.18217113E-04  0.12473386E-02
  0.35855385E-02  0.18729064E-02 -0.19169494E-02
  0.55558485E-03  0.31851797E-02  0.38700243E-04
  0.32999200E-02 -0.20266287E-03  0.17432574E-02
 -0.65200910E-02  0.23790233E-02 -0.54653196E-03
 -0.34923334E-02  0.34786197E-02 -0.23785278E-03
  0.39097313E-03 -0.63413256E-03 -0.33636000E-03
  0.35340697E-03  0.31283991E-02 -0.62536332E-03
 -0.15152847E-02  0.18502031E-02  0.42547791E-02
 -0.24217312E-02 -0.49147246E-02 -0.57064350E-03
 -0.86375194E-03 -0.56538258E-04 -0.67398124E-03
  0.61692757E-03  0.41897823E-02 -0.18996635E-02
  0.30467855E-02  0.82195210E-03  0.12113593E-02
  0.38854864E-02  0.11778284E-02  0.28118138E-02
  0.16178435E-03 -0.61909570E-03 -0.85370413E-03
  0.10164043E-03  0.14654301E-02 -0.13537595E-02
  0.15418016E-02  0.62672770E-03  0.15607708E-02
  0.18446728E-02  0.46830150E-04 -0.11070237E-02
  0.43279742E-02 -0.38858375E-02  0.11617568E-02
 -0.13161644E-02 -0.19999384E-02 -0.22676007E-04
  0.17399183E-02 -0.27923157E-02  0.17054546E-02
 -0.34190909E-03 -0.23420864E-02 -0.39229974E-03
 -0.13871229E-02 -0.25199511E-02 -0.15025926E-02
  0.53632944E-03  0.21826680E-02 -0.32985604E-03
  0.11295505E-02  0.31420928E-03  0.51628304E-04
 -0.91233450E-03  0.21037241E-02 -0.11828860E-02
  0.16105220E-02  0.41218776E-02 -0.13710722E-02
 -0.20325289E-02  0.26762457E-02  0.16029921E-02
 -0.18569969E-02  0.32533032E-03 -0.14247297E-02
  0.14943595E-02  0.13946772E-02 -0.95002914E-03
  0.31353082E-02  0.20508860E-02 -0.22809861E-02
 -0.48539200E-03 -0.22464923E-02 -0.15733445E-02
  0.48436341E-04  0.19865529E-02 -0.24417395E-02
 -0.32038618E-02  0.12231316E-02 -0.62313374E-03
  0.47721417E-03 -0.97429501E-04 -0.76320524E-03
 -0.19026226E-02  0.55403597E-05  0.16280610E-02
  0.62022008E-03  0.86523532E-03 -0.38794095E-03
  0.36944867E-03 -0.10612763E-02  0.14958006E-02
 -0.14667490E-02  0.13417354E-02 -0.18060496E-02
 -0.10298298E-02 -0.24030195E-02 -0.32129721E-02
 -0.65857652E-03  0.56371578E-02 -0.16094576E-02
 -0.60690305E-03 -0.22827379E-02  0.81084944E-03
 -0.15027706E-02  0.58294379E-03 -0.22998570E-02
 -0.15436746E-03 -0.33737996E-02 -0.30351184E-02
 -0.25118487E-02 -0.47273690E-02  0.17381832E-02
  0.14213092E-02 -0.93861222E-03 -0.23475389E-03
 -0.31218239E-02  0.19366346E-02  0.18046962E-02
 -0.32971118E-02  0.18402334E-03 -0.18653875E-02
 -0.50679981E-02 -0.46359997E-02  0.13166706E-02
  0.26816354E-02 -0.36592753E-03 -0.17487985E-02
 -0.97342405E-03 -0.71498310E-03  0.72935583E-04
  0.13800912E-02  0.19753505E-02 -0.13174657E-02
 -0.19569957E-02 -0.29577687E-04 -0.49070562E-04
 -0.27050201E-02 -0.10641125E-02  0.29146670E-02
 -0.34975359E-02 -0.40814845E-02 -0.43591150E-03
  0.18116687E-02  0.41352306E-03  0.41640161E-02
  0.19381725E-02 -0.76395424E-04 -0.31003622E-02
 -0.26168842E-02 -0.15595542E-02  0.36139994E-02
  0.17148905E-02  0.43787362E-02  0.16796035E-02
 -0.65946093E-03  0.25358516E-02 -0.19062858E-02
  0.88845021E-03 -0.18535579E-03 -0.16035288E-02
  0.31813101E-02  0.48799938E-03 -0.33637182E-03
  0.38074701E-02  0.24581466E-02  0.70038216E-03
 -0.10858731E-02  0.24074996E-02  0.17027845E-02
  0.20240125E-02  0.16840073E-02  0.12447657E-04
  0.28439236E-02  0.24842805E-02 -0.15111872E-02
 -0.21628326E-03  0.99246969E-03  0.27196446E-02
 -0.47324511E-02  0.70239650E-03 -0.60153023E-04
  0.38686049E-03  0.21270339E-02  0.12848352E-02
 -0.10340202E-02 -0.24804988E-02  0.51197472E-03
  0.65700597E-03 -0.93564672E-03 -0.12448199E-02
 -0.69072928E-03  0.16880914E-02  0.21958119E-02
  0.79006685E-03  0.16078785E-02 -0.39174509E-02
  0.81698797E-03 -0.84848471E-03 -0.29693553E-03
  0.59434205E-02 -0.73627229E-03 -0.57168166E-03
  0.45585904E-03 -0.12763085E-02 -0.79349154E-03
  0.23117450E-02 -0.18533901E-02  0.13720236E-02
  0.28071740E-02  0.34359433E-02 -0.49479042E-03
  0.24174926E-04 -0.34115082E-02 -0.33895310E-02
  0.19009692E-02  0.20973675E-02 -0.35037751E-03
 -0.17197374E-03  0.24797126E-02 -0.69953350E-03
  0.16154997E-02  0.33497398E-03  0.59105100E-03
 -0.14106858E-02  0.26453968E-02  0.40190974E-02
 -0.10041520E-02  0.26503392E-02 -0.23034950E-02
  0.67098683E-03 -0.19284973E-02 -0.36900467E-02
  0.56584298E-02  0.58089956E-02  0.10550141E-02
 -0.13555653E-02  0.49174466E-02 -0.23033723E-02
  0.92125691E-03 -0.39537048E-02 -0.84567704E-04
 -0.16063396E-02 -0.25389223E-02 -0.13768093E-02
 -0.43358592E-02  0.20433253E-02 -0.38687237E-02
  0.52969783E-03 -0.27261109E-03 -0.37926412E-02
 -0.28890073E-03 -0.20074724E-02  0.37856573E-03
 -0.13357845E-03  0.46916677E-03 -0.37704911E-02
  0.86314070E-03 -0.13803840E-02 -0.60966360E-02
 -0.10359945E-03 -0.29264549E-02  0.29158410E-02
  0.17420046E-02  0.17660365E-02  0.23139776E-02
  0.20457498E-02  0.22786178E-02  0.69749394E-02
 -0.31986459E-02 -0.36009989E-03 -0.13450002E-02
  0.11665767E-02  0.15190481E-02  0.46707095E-02
  0.77271558E-03 -0.29130957E-02 -0.37467800E-03
 -0.27721406E-02  0.62582646E-02  0.23067555E-02
 -0.41425351E-02  0.18680124E-02 -0.42285524E-02
  0.21949923E-03  0.25319343E-02 -0.22462416E-02
  0.36879377E-03 -0.37637634E-02  0.16479365E-02
  0.63086549E-02  0.79242999E-02  0.10489135E-01
  0.13470616E-02 -0.67471934E-02  0.13265114E-02
 -0.31693024E-02 -0.55912713E-02 -0.99092233E-02
  0.10519077E-02 -0.21472633E-02 -0.13199398E-02
  0.32827745E-02 -0.21196385E-02 -0.12182661E-02
  0.19415732E-02 -0.20049364E-02 -0.36640268E-02
  0.47283678E-02  0.10076711E-02 -0.53614372E-02
 -0.20062367E-02 -0.20098902E-02  0.48133295E-02
  0.49501589E-03  0.26397436E-03 -0.20679483E-02
  0.76671265E-04  0.34130249E-02  0.38072330E-03
  0.25888834E-02 -0.36700351E-02 -0.45505689E-03
 -0.42104300E-02 -0.30841407E-02 -0.33609360E-02
  0.72111870E-02 -0.95679876E-03 -0.47917644E-02
  0.19985043E-02 -0.75163238E-03 -0.75701892E-03
 -0.48630948E-03 -0.75174858E-02 -0.14024649E-02
 -0.66136592E-02 -0.80430003E-02 -0.56730519E-02
 -0.15957612E-03 -0.31029692E-02 -0.44592938E-02
 -0.30380262E-02  0.25926521E-02 -0.14813796E-02
 -0.13789686E-02  0.26842302E-02  0.64876431E-02
 -0.13323249E-02 -0.65173446E-02 -0.41680137E-03
 -0.34027714E-02  0.19030824E-02 -0.76779511E-02
  0.49618108E-02  0.24993323E-02 -0.17078490E-02
  0.11340107E-02  0.12392102E-02  0.38015734E-02
 -0.12864475E-02  0.19380732E-02  0.20850086E-02
  0.67773499E-02 -0.17397225E-02  0.58932748E-02
  0.28516215E-02 -0.61841081E-02  0.45978392E-03
  0.88532270E-03 -0.17797332E-02  0.25043050E-02
 -0.24061942E-02  0.26093000E-02 -0.13544996E-02
 -0.14482818E-02 -0.25534482E-02 -0.13828124E-02
  0.12110826E-02 -0.56795140E-04 -0.48981170E-03
  0.98304082E-03  0.88729961E-03 -0.20011312E-02
  0.43624215E-02  0.50926669E-02  0.17565589E-02
 -0.13986485E-02  0.10038150E-02  0.39317695E-02
  0.67395526E-02  0.21442299E-02 -0.49464144E-02
  0.56172752E-02 -0.28499509E-02  0.26131332E-02
  0.14794390E-02 -0.26041702E-02 -0.45550686E-02
 -0.10182474E-02 -0.45164381E-02 -0.39821047E-02
  0.34103685E-02 -0.35405480E-02 -0.34161739E-02
  0.23429402E-02 -0.84318963E-03  0.81117860E-02
  0.25955137E-02 -0.11218275E-02  0.60476971E-02
 -0.94232027E-03 -0.83533898E-03 -0.16730060E-02
  0.12708661E-02 -0.19245672E-03  0.25503598E-02
  0.33921397E-02 -0.11989451E-02  0.27450110E-02
 -0.36425862E-02  0.42909294E-02  0.30803716E-02
 -0.74361230E-03 -0.32929994E-02  0.97675514E-03
 -0.56611517E-03 -0.24955228E-02  0.83167585E-03
  0.19977613E-02  0.30931964E-02 -0.18643255E-02
  0.50800215E-02 -0.57431566E-02  0.75019108E-04
  0.66110669E-03  0.17738207E-02  0.27301162E-02
 -0.37814758E-02  0.44957009E-02 -0.13994827E-02
  0.56373607E-03  0.37549115E-02 -0.13001661E-02
 -0.53934095E-02  0.13714121E-02  0.38449219E-02
 -0.23931149E-02  0.18022341E-02 -0.20412578E-02
  0.34408800E-02  0.12404433E-03  0.78908745E-02
 -0.79670647E-02 -0.44432506E-02  0.23274341E-03
 -0.39147845E-02 -0.67329817E-03 -0.53931549E-02
  0.16454695E-02  0.20991997E-04 -0.43074769E-02
 -0.55571888E-03  0.43056314E-02  0.61373735E-03
  0.55218664E-03  0.50495468E-03  0.20492559E-02
 -0.22892860E-03 -0.10269013E-03 -0.65760256E-02
 -0.44615764E-03 -0.83558297E-03  0.13271300E-02
  0.13367125E-02 -0.50648515E-02 -0.56025104E-03
 -0.60024952E-03  0.25235763E-03  0.48753239E-03